111  4  Ta 22 Ti 23 V 73 W 74   -1327.39929122  -0.13086114  -0.13086114 
1.0
12.61246729 -0.03335262 0.03208109
-0.03330827 12.71855684 0.00407685
0.03205424 0.00407358 12.68391323
Ta Ti V W 
32 32 32 32 
Cartesian 
0.07005000 6.37512016 9.50271988
11.03464031 4.67925978 1.63560998
11.05276966 7.91922998 4.77421999
11.00586987 11.14960957 4.81015015
11.05970001 1.48306000 8.05725956
11.01957035 4.70075989 8.00788021
9.45479965 3.11855006 6.37783003
11.01103973 7.94434023 7.85521984
6.27213001 3.08006001 3.22362995
4.69133997 4.70020008 1.59539998
6.29790020 9.56126022 3.15321994
3.17602992 6.35921001 12.66609001
11.04701996 4.63537979 11.17383957
9.52562046 9.56560040 9.56585979
6.28527021 9.51982975 6.32359982
3.16612005 9.57297993 3.14243007
6.26463985 6.42411995 3.15811992
12.48128986 9.62668037 0.06908000
0.05351000 6.33788013 12.65649033
1.58738005 11.14406967 7.98054981
0.06525000 3.15616012 6.33542013
0.05838000 0.02064000 6.38004017
4.73269987 4.60727978 11.20081043
0.01211000 9.66246033 3.12044001
1.55364001 7.96477985 4.76987982
1.60108995 8.06772995 11.11627960
6.30868006 9.53722954 9.52797985
7.94138002 7.91296005 11.12705040
4.65677023 1.50252998 7.95265007
6.29528999 12.68603992 9.57623959
7.97459984 1.59542000 11.17603970
3.11716008 6.35648012 6.45698977
11.05562019 11.42296982 11.03330994
6.33584976 3.03577995 6.38500977
9.40544987 6.28193998 9.55533981
3.05639005 12.70427990 0.07375000
4.67660999 1.67452002 1.50277996
7.85268021 4.78410006 4.79447985
6.29948997 12.68181992 3.11398005
6.27081013 6.38587999 0.04687000
6.28115988 9.55937958 0.02992000
9.38512039 9.56752968 3.14222002
6.28704977 12.64496040 0.04617000
11.06250954 1.52610004 4.68161011
9.48163986 9.59356976 0.06546000
7.99081993 1.46025002 4.75833988
7.88008022 7.86279011 7.91389990
11.04636002 7.81087017 1.67411005
3.09241009 3.12729001 3.22437000
12.50761986 9.51159000 9.54090023
1.61094999 11.15509033 11.04922009
0.07262000 6.25310993 6.36608982
3.15512991 6.32575989 9.46761990
4.75370979 4.82945013 4.82704020
4.71413994 1.68553996 11.16187000
1.54501998 1.46427000 4.58246994
3.07517004 3.19723010 9.49781036
4.93018007 4.83311987 7.74587011
6.29101992 6.29493999 9.56882000
6.37771988 3.19459009 9.44618034
1.57948005 7.94634008 1.60209000
4.66658020 11.18507004 4.78401995
0.01615000 0.04994000 0.09321000
3.07770991 3.14482999 6.35051012
11.02157974 7.83944988 11.19991016
9.40738010 12.67811966 9.52118969
11.03925991 1.54437006 11.16475010
3.22831988 9.58930969 0.02413000
4.61687994 7.93999004 1.60263002
3.01798010 3.16839004 12.68984985
11.04251957 1.59217000 1.62873006
9.42978001 12.63350010 6.43516016
6.42479992 3.22814012 0.02976000
11.03407001 11.31484985 1.70841002
9.45905018 3.08205009 0.06470000
9.47803974 0.01472000 0.04861000
7.89121008 4.81250000 7.85696983
11.03800964 11.12285995 7.92678022
3.08895993 12.68406010 3.09006000
7.89986992 11.17506027 4.81657982
1.52709997 1.60250998 1.66612005
1.57286000 4.67583990 11.13290977
0.08809000 0.05760000 9.50183010
0.01381000 9.58666992 6.37341022
1.62096000 8.07649040 7.90140009
6.27826023 6.54350996 6.28187990
1.56860995 1.47744000 8.04012012
3.17170000 0.02221000 9.56552982
1.46463001 4.66757011 8.02108955
0.06020000 3.17519999 3.14048004
4.72358990 7.96436977 7.88191986
0.01721000 0.01468000 3.00263000
3.12298012 12.70586014 6.34131002
1.51810002 11.18062973 1.61228001
4.68268013 7.95987988 4.78742981
0.01952000 6.22394991 3.24397993
7.94651985 1.49725997 7.94763994
9.44587040 3.12889004 9.56966019
4.63846016 11.14375019 1.60353005
7.87829018 7.92834997 4.79297018
9.42451954 9.56089020 6.34447002
9.43927956 6.29688978 6.36391020
11.02025032 4.70619011 4.74048996
7.90742016 7.92223978 1.59000003
7.90461016 4.70783997 1.62512004
9.42698002 6.33844995 3.19780993
7.95147991 1.59917998 1.56265998
9.48670959 3.12369990 3.17208004
6.30475998 12.66740036 6.35246992
7.93089008 11.17541981 1.59972000
4.68973017 1.43929005 4.78422022
4.67229986 11.13031960 7.89582014
3.13524008 6.35263014 3.19921994
1.53371000 4.72194004 1.59405994
-0.00327000 3.07435989 0.03264000
7.91204023 4.70191002 11.18082047
7.96939993 11.17854977 11.11921978
1.56873000 4.75665998 4.71640015
3.16026998 9.51601028 6.36161995
1.60118997 11.16921997 4.78083992
4.71028996 7.96362019 11.10521030
4.64295006 11.12718010 11.10509014
3.19427991 9.50885010 9.50436020
1.59398997 1.56459999 11.11126041
0.07106000 3.12368989 9.56184006
9.44079018 12.66956043 3.14023995
7.92116022 11.10774040 7.90783978
9.45316029 6.31637001 12.70452023

0.00162700 -0.00291500 -0.00194900
0.00032300 -0.00197200 -0.00164400
-0.00051600 -0.00186300 0.00009200
0.00012300 0.00133600 0.00122200
0.00115500 0.00356300 -0.00006200
-0.00022600 -0.00164900 0.00067700
-0.00229200 0.00057100 0.00040400
-0.00153900 -0.00142000 -0.00095100
-0.00015800 -0.00053900 -0.00014300
-0.00017700 0.00103100 -0.00065800
0.00004600 -0.00113800 0.00038000
0.00056700 0.00167000 0.00071200
0.00128600 -0.00325000 -0.00003400
-0.00033500 -0.00147600 -0.00145500
0.00062000 0.00117900 -0.00020300
-0.00130200 -0.00031400 0.00110100
-0.00010300 0.00045500 -0.00052700
0.00407400 -0.00192200 0.00520300
0.00071800 -0.00346900 -0.00143900
-0.00155800 -0.00027700 0.00104000
0.00133400 0.00284700 -0.00045100
0.00004800 0.00330300 0.00030400
0.00060800 0.00464900 -0.00286300
-0.00043500 -0.00059600 0.00228300
0.00024800 0.00027600 0.00047000
-0.00006700 -0.00062100 0.00025100
0.00139900 0.00151300 0.00047500
0.00165000 -0.00031100 0.00014700
-0.00050700 -0.00498400 -0.00183000
0.00220000 -0.00068200 -0.00079200
-0.00043800 -0.00079000 0.00111200
0.00101600 0.00124500 -0.00047400
0.00097000 -0.00489100 0.00469300
-0.00285700 -0.00253500 -0.00104600
-0.00169400 -0.00223700 -0.00028400
-0.00155600 -0.00320300 -0.00422300
-0.00372000 -0.00628900 0.00406100
-0.00107500 0.00069000 -0.00026800
-0.00003600 -0.00193600 -0.00008600
-0.00033400 0.00152500 -0.00214900
-0.00004300 0.00091100 -0.00080000
-0.00047200 -0.00066100 0.00082100
0.00026700 -0.00281800 -0.00099300
-0.00110400 0.00311200 -0.00157900
0.00119600 -0.00076500 0.00065200
-0.00168000 0.00027800 -0.00056900
0.00210000 0.00113200 -0.00145300
-0.00058600 -0.00232600 -0.00080400
0.00093000 0.00066000 0.00016500
-0.00207700 -0.00415900 0.00053000
-0.00443100 0.00426500 -0.00364600
0.00036100 -0.00145700 -0.00040900
0.00025300 0.00413500 0.00047400
0.00028400 0.00302000 -0.00163600
0.00050700 -0.00007200 0.00142300
0.00171300 0.00247100 0.00040200
0.00178200 0.00014300 -0.00023500
-0.00170600 -0.00140400 0.00391800
0.00286300 0.00368600 0.00076800
-0.00193100 -0.00418600 0.00170200
-0.00116200 -0.00215200 0.00081000
-0.00129200 -0.00179000 0.00116700
-0.00005700 0.00343800 0.00075500
0.00120600 0.00245800 -0.00165600
0.00027100 -0.00145500 0.00221800
0.00223900 0.00086900 0.00168400
0.00007200 -0.00069100 -0.00053300
-0.00154600 0.00270400 -0.00062300
-0.00240400 0.00152100 0.00160900
0.00470000 -0.00040900 0.00110700
0.00047800 0.00125000 -0.00096500
-0.00063400 0.00256900 0.00123700
-0.00373400 -0.00056000 -0.00103200
-0.00012000 0.00110100 -0.00004700
-0.00235800 0.00005800 -0.00055700
0.00107400 -0.00054700 -0.00071100
-0.00624200 0.00131200 -0.00145900
0.00164100 0.00242400 0.00144100
-0.00187200 -0.00141500 0.00083600
0.00126200 0.00112800 0.00072100
0.00418600 -0.00021200 -0.00104100
0.00270200 -0.00039200 -0.00090700
-0.00567600 0.00274300 -0.00103100
-0.00094800 -0.00021400 -0.00047300
0.00120400 0.00005400 -0.00072700
-0.00141700 0.00046100 0.00334100
0.00133100 0.00097800 -0.00047500
-0.00068200 -0.00136600 -0.00150700
0.00504100 0.00215900 0.00118800
0.00221900 0.00184800 -0.00146300
0.00052600 0.00426900 -0.00055000
0.00234200 0.00169100 0.00129400
-0.00096500 -0.00255000 0.00039400
0.00107900 0.00159700 0.00209800
0.00057300 0.00166900 0.00100400
-0.00132400 -0.00220700 0.00100500
-0.00095300 0.00021300 -0.00009000
-0.00049800 0.00015700 0.00037700
-0.00033700 -0.00201100 -0.00066500
-0.00151800 -0.00039500 0.00159100
0.00027300 0.00099600 -0.00122500
-0.00073200 -0.00187100 -0.00004600
-0.00090400 -0.00032500 -0.00095600
0.00081600 -0.00065000 -0.00012900
-0.00223800 -0.00069000 -0.00100400
0.00033700 -0.00066100 -0.00051600
-0.00064000 -0.00077700 -0.00070400
-0.00087600 0.00055400 -0.00026100
0.00021600 -0.00132600 0.00006700
-0.00054000 -0.00071800 0.00082400
0.00124600 -0.00280300 0.00017600
0.00005300 -0.00098700 0.00010900
0.00007900 -0.00061400 -0.00053400
0.00112800 -0.00145200 -0.00132800
0.00213600 -0.00064400 -0.00034100
-0.00194300 -0.00086900 -0.00042400
0.00243200 0.00118500 -0.00087400
-0.00048900 0.00162900 -0.00176200
-0.00000300 -0.00030700 0.00071300
-0.00043300 0.00100000 0.00125100
-0.00026600 0.00195600 0.00027800
-0.00043100 0.00180200 -0.00060600
-0.00082700 0.00137100 -0.00044200
0.00038800 0.00193800 -0.00023300
0.00269700 0.00283500 -0.00142800
0.00088400 0.00114400 0.00076700
0.00096100 -0.00011400 -0.00044300
0.00095700 -0.00244200 -0.00012200

-0.01011412  -0.00563512  -0.00561686  0.00001184  -0.00002716  -0.00000761 

0