111  4  Ta 22 Ti 23 V 73 W 74   -1327.35055793  -0.08212785  -0.08212785 
1.0
12.58708992 -0.03335262 0.03208109
-0.03330827 12.71855684 0.00407685
0.03205424 0.00407358 12.68391323
Ta Ti V W 
32 32 32 32 
Cartesian 
0.07099000 6.37408018 9.50226021
11.01276016 4.67886019 1.63508999
11.03057003 7.91874981 4.77449989
10.98419952 11.15021992 4.81004000
11.03787041 1.48442996 8.05696011
10.99713993 4.70062017 8.00769043
9.43406963 3.11869001 6.37741995
10.99030972 7.94345999 7.85548019
6.25855017 3.07990003 3.22438002
4.68206978 4.69933987 1.59473002
6.28514004 9.56140041 3.15367007
3.17019010 6.36006021 12.66635036
11.02550030 4.63479996 11.17362022
9.50815010 9.56507969 9.56575012
6.27269983 9.52017021 6.32374001
3.15879989 9.57250023 3.14281011
6.25094986 6.42448997 3.15804005
12.45763016 9.62759972 0.06974000
0.05404000 6.33698988 12.65612984
1.58151996 11.14428043 7.98060989
0.06670000 3.15649009 6.33591986
0.05851000 0.02240000 6.37938023
4.72213984 4.60960007 11.19890976
0.01100000 9.66248989 3.11981010
1.54960001 7.96444988 4.76998997
1.59693003 8.06760025 11.11635971
6.29708004 9.53771973 9.52793026
7.92662001 7.91257000 11.12736988
4.64543009 1.50128996 7.95196009
6.28230000 12.68607998 9.57653046
7.95714998 1.59571004 11.17665958
3.11227012 6.35731983 6.45749998
11.03512001 11.42064953 11.03481007
6.32115984 3.03588009 6.38431978
9.38611031 6.28164005 9.55488968
3.05005002 12.70312977 0.07209000
4.66574001 1.67170000 1.50374997
7.83452988 4.78416014 4.79473019
6.28549004 12.68150997 3.11377001
6.25754023 6.38672018 0.04667000
6.26886988 9.55920029 0.02995000
9.36785984 9.56797028 3.14230990
6.27354002 12.64457989 0.04582000
11.04113007 1.52672994 4.68146992
9.46335983 9.59335995 0.06593000
7.97335005 1.46046996 4.75822020
7.86379004 7.86269999 7.91321993
11.02521992 7.81082010 1.67421997
3.08734989 3.12686992 3.22511005
12.48196983 9.51107025 9.54207993
1.60520005 11.15701962 11.04841042
0.07325000 6.25217009 6.36684990
3.14995003 6.32663012 9.46769047
4.74441004 4.82917023 4.82769012
4.70481014 1.68598998 11.16294003
1.54255998 1.46554995 4.58248997
3.07190990 3.19792008 9.49670029
4.92067003 4.83200979 7.74672985
6.27816010 6.29576015 9.56754017
6.36184978 3.19409990 9.44583988
1.57523000 7.94554996 1.60253000
4.65724993 11.18513966 4.78445005
0.01546000 0.05061000 0.09367000
3.07329988 3.14549994 6.34968996
10.99997997 7.84047985 11.19937038
9.39126968 12.67858028 9.52178001
11.01756001 1.54324996 11.16419029
3.21822000 9.58992004 0.02475000
4.60734987 7.94172001 1.60175002
3.01676011 3.16777992 12.69050026
11.02106953 1.59205997 1.62935996
9.41172981 12.63405991 6.43424988
6.40700006 3.22654009 0.02980000
11.01247978 11.31464005 1.70791996
9.43927956 3.08207989 0.06453000
9.45991039 0.01447000 0.04898000
7.87189007 4.81250000 7.85737991
11.01694012 11.12372017 7.92778015
3.08205009 12.68375015 3.08964992
7.88346004 11.17502975 4.81597996
1.52699995 1.60223997 1.66486001
1.57287002 4.67526007 11.13286972
0.08573000 0.05856000 9.50253010
0.01336000 9.58718014 6.37337017
1.61623001 8.07581043 7.90169001
6.26405001 6.54285002 6.28339005
1.56727004 1.47786999 8.04076958
3.16418004 0.02139000 9.56538010
1.46594000 4.66866016 8.02060986
0.06042000 3.17429996 3.13995004
4.71541023 7.96505022 7.88209009
0.01866000 0.01520000 3.00323009
3.11561990 12.70520973 6.34171009
1.51473999 11.18167019 1.61212003
4.67299986 7.95965004 4.78843021
0.01960000 6.22404003 3.24362993
7.92931986 1.49738002 7.94777012
9.42584991 3.12925005 9.56972027
4.62828016 11.14332008 1.60293996
7.86218023 7.92821980 4.79312992
9.40655041 9.56087017 6.34465981
9.41954041 6.29638004 6.36403990
10.99812984 4.70586014 4.74031019
7.89131021 7.92265987 1.59038997
7.88676977 4.70749998 1.62419999
9.40812969 6.33792019 3.19784999
7.93383980 1.59888995 1.56227005
9.46710014 3.12347007 3.17198992
6.29201984 12.66720963 6.35249996
7.91513014 11.17545033 1.59923005
4.68006992 1.43911004 4.78421021
4.66257000 11.13035965 7.89613008
3.12912011 6.35302019 3.19917011
1.53206003 4.72107983 1.59408998
-0.00209000 3.07367992 0.03231000
7.89421988 4.70159006 11.18062973
7.95454979 11.17908955 11.11979961
1.56686997 4.75695992 4.71616983
3.15300989 9.51566982 6.36193991
1.59745002 11.16950035 4.78058004
4.70136023 7.96445990 11.10496998
4.63319016 11.12640953 11.10503960
3.18597007 9.50903034 9.50403023
1.59217000 1.56427002 11.11096001
0.07242000 3.12426996 9.56163979
9.42216969 12.67018032 3.14059997
7.90670013 11.10848999 7.90809011
9.43412018 6.31587982 12.70471954

0.00019100 -0.00029100 -0.00059200
-0.00049600 -0.00187400 -0.00016000
0.00008400 -0.00089600 -0.00021400
-0.00081800 0.00146900 0.00145100
0.00103200 0.00063700 -0.00099600
0.00062700 0.00021700 0.00045400
0.00065400 0.00014000 -0.00007000
-0.00287700 -0.00020700 -0.00099800
0.00003600 -0.00074700 -0.00144000
0.00078400 0.00173600 -0.00008600
-0.00108600 -0.00130100 0.00038700
-0.00012800 0.00107300 0.00091700
0.00020500 -0.00196000 -0.00159800
0.00008800 0.00022600 -0.00075200
0.00073600 0.00044200 -0.00118600
0.00071400 -0.00031000 0.00063700
0.00099800 0.00152700 0.00037100
0.00058200 -0.00411900 0.00501200
0.00035500 -0.00261200 -0.00066500
-0.00071700 -0.00043800 0.00103200
-0.00207700 0.00166300 -0.00119300
-0.00108900 0.00304300 0.00052200
0.00287800 0.00298800 -0.00023800
-0.00116800 -0.00083900 0.00273900
-0.00101300 -0.00087900 0.00098800
-0.00063300 -0.00059700 -0.00013100
0.00044000 0.00009100 0.00003400
0.00147400 0.00070500 0.00010400
0.00135600 -0.00302200 0.00111100
0.00211500 -0.00053800 -0.00018300
0.00035700 -0.00211200 0.00062600
-0.00001200 0.00052600 -0.00064900
-0.00046700 -0.00214300 0.00417200
-0.00047300 -0.00370300 -0.00108400
-0.00126200 -0.00312100 0.00041700
-0.00129700 -0.00268600 -0.00323900
-0.00224900 -0.00465300 0.00399400
0.00160900 0.00025700 -0.00021600
0.00185600 -0.00315300 0.00037900
0.00066100 0.00120500 -0.00082300
-0.00059600 0.00014000 -0.00065400
-0.00265000 -0.00239200 0.00082500
0.00165600 -0.00259600 0.00043300
-0.00170200 0.00352300 -0.00156100
0.00116600 -0.00150300 0.00062700
0.00001200 -0.00033000 -0.00074000
0.00372700 0.00270800 0.00092100
-0.00138300 -0.00403400 -0.00131700
0.00050300 0.00149000 -0.00094300
-0.00223500 -0.00439300 -0.00079900
-0.00455100 0.00245800 -0.00461800
-0.00240100 0.00090500 -0.00127300
-0.00077800 0.00491200 -0.00016600
0.00108200 0.00410100 -0.00317000
0.00060300 -0.00052100 0.00015200
0.00043900 0.00080200 0.00020100
0.00075400 -0.00121000 -0.00030800
-0.00225800 0.00008800 0.00168500
0.00404700 0.00366300 0.00108500
0.00155700 -0.00444600 0.00204200
-0.00049200 -0.00237200 0.00137500
-0.00118100 -0.00335400 -0.00043900
0.00090600 0.00341000 0.00038800
-0.00040700 0.00094100 -0.00014800
0.00062900 -0.00477500 0.00347100
0.00057100 0.00066500 0.00090400
-0.00054500 0.00057000 0.00007300
0.00202400 0.00187100 -0.00103500
-0.00168100 -0.00095600 0.00326200
-0.00005900 0.00150300 0.00051300
-0.00037800 0.00142000 -0.00231700
-0.00132000 0.00270300 0.00326300
0.00237200 0.00257800 -0.00030700
0.00018500 0.00244500 0.00151800
-0.00020300 -0.00009100 -0.00039000
0.00029300 0.00081100 -0.00124800
-0.00254100 0.00124400 -0.00233200
-0.00055300 0.00224400 0.00038300
-0.00105500 -0.00201100 0.00083600
0.00163900 0.00055900 0.00208800
0.00203900 0.00023900 -0.00041800
-0.00032400 0.00117300 -0.00144800
-0.00462200 0.00250100 -0.00221700
-0.00092700 -0.00078200 -0.00031200
0.00266100 0.00126700 -0.00077300
0.00084700 0.00247700 0.00174700
-0.00171800 0.00081000 -0.00207700
0.00161200 0.00016300 -0.00096100
0.00162500 0.00225300 0.00074300
0.00144300 0.00316300 -0.00105500
-0.00125900 0.00390300 -0.00044900
-0.00051000 0.00079600 0.00080000
0.00067500 -0.00230100 -0.00021700
0.00074600 0.00081600 0.00281200
0.00148100 0.00312900 -0.00070500
-0.00273000 -0.00220900 0.00155700
0.00027500 -0.00072400 0.00099900
0.00051100 -0.00051900 0.00060500
0.00116200 -0.00105900 -0.00099000
-0.00167100 -0.00007400 -0.00036600
-0.00044000 0.00168600 -0.00061300
-0.00031800 -0.00019300 -0.00020200
-0.00005200 0.00038900 0.00035300
-0.00052100 -0.00083400 -0.00184200
-0.00016100 0.00016700 -0.00069100
0.00112000 -0.00086700 -0.00062400
-0.00035500 -0.00162500 -0.00061700
-0.00016500 0.00022200 -0.00009300
0.00090000 -0.00220600 -0.00161900
-0.00056300 -0.00229200 -0.00048800
0.00158700 -0.00317900 -0.00097000
0.00116300 -0.00091500 0.00073100
-0.00104000 0.00097000 -0.00043500
0.00000600 -0.00105700 -0.00117400
-0.00084300 -0.00033200 -0.00126300
0.00017300 -0.00015900 -0.00078100
0.00015700 -0.00154500 -0.00027100
-0.00220400 0.00066000 -0.00202800
0.00073400 -0.00002200 0.00026400
-0.00182400 0.00097300 0.00246300
0.00150500 0.00066000 0.00177100
0.00247100 0.00355200 -0.00030900
-0.00052800 0.00173900 0.00048200
0.00016300 0.00148300 -0.00138200
-0.00060900 0.00119600 -0.00042000
0.00064200 0.00100400 0.00096400
-0.00135300 -0.00055500 0.00074500
0.00187500 -0.00245900 -0.00034000

-0.01351780  -0.00760655  -0.00756080  0.00001528  -0.00002699  -0.00002082 

0