111  4  Ta 22 Ti 23 V 73 W 74   -1327.45538296  -0.18695288  -0.18695288 
1.0
12.66322202 -0.03335262 0.03208109
-0.03330827 12.71855684 0.00407685
0.03205424 0.00407358 12.68391323
Ta Ti V W 
32 32 32 32 
Cartesian 
0.06952000 6.37580013 9.50298023
11.07857990 4.67938995 1.63585997
11.09650993 7.91946983 4.77394009
11.04893017 11.14850998 4.81048012
11.10346031 1.48178005 8.05780983
11.06429958 4.70052004 8.00872040
9.49485016 3.11839008 6.37886000
11.05270004 7.94591999 7.85458994
6.29920006 3.08019996 3.22224998
4.70990992 4.70227003 1.59695005
6.32320976 9.56081009 3.15244007
3.18797994 6.35832977 12.66613007
11.09101009 4.63526011 11.17438030
9.56128979 9.56618977 9.56599045
6.31042004 9.51968002 6.32346010
3.17969990 9.57384968 3.14206004
6.29192019 6.42395020 3.15833998
12.52950001 9.62436008 0.06900000
0.05316000 6.33830023 12.65664005
1.59789002 11.14396000 7.98032999
0.06375000 3.15613008 6.33451986
0.05795000 0.01832000 6.38094997
4.75337982 4.60494995 11.20368004
0.01404000 9.66238976 3.12181997
1.56143999 7.96546984 4.76981020
1.60959005 8.06781006 11.11608982
6.33233976 9.53662014 9.52857018
7.97222996 7.91318989 11.12652969
4.67872000 1.50310004 7.95333004
6.32146978 12.68537998 9.57567978
8.00850010 1.59513998 11.17523956
3.12751007 6.35537004 6.45581007
11.09722042 11.42634010 11.03168964
6.36425018 3.03445005 6.38583994
9.44377995 6.28200006 9.55620956
3.06900001 12.70538998 0.07513000
4.69691992 1.67769003 1.50222003
7.88799000 4.78428984 4.79446983
6.32704020 12.68175983 3.11414003
6.29714012 6.38504982 0.04683000
6.30603981 9.55967045 0.02952000
9.42012024 9.56651020 3.14214993
6.31396008 12.64490986 0.04652000
11.10492039 1.52576995 4.68137980
9.51895046 9.59366989 0.06479000
8.02505016 1.45977998 4.75845003
7.91341019 7.86341000 7.91461992
11.08891964 7.81004000 1.67372000
3.10304999 3.12810993 3.22327995
12.55811977 9.51214027 9.53919983
1.62061000 11.15272999 11.05016994
0.07183000 6.25403976 6.36471987
3.16619992 6.32525015 9.46743011
4.77254009 4.83037996 4.82537985
4.73302984 1.68498003 11.16018963
1.55035996 1.46270001 4.58206987
3.08349991 3.19669008 9.49876022
4.94899988 4.83475018 7.74394989
6.31737995 6.29430008 9.57075977
6.40759993 3.19478011 9.44711018
1.58695996 7.94702005 1.60146999
4.68462992 11.18472004 4.78356981
0.01733000 0.04978000 0.09266000
3.08732009 3.14397001 6.35159016
11.06486988 7.83728981 11.20114040
9.44044971 12.67790031 9.52062988
11.08257961 1.54641998 11.16567993
3.24713993 9.58866024 0.02283000
4.63509989 7.93762016 1.60474002
3.02308011 3.16965008 12.68912983
11.08547020 1.59265006 1.62743998
9.46588039 12.63311005 6.43696022
6.45773983 3.23108006 0.02950000
11.07719994 11.31567955 1.70946002
9.49734020 3.08209991 0.06486000
9.51432037 0.01537000 0.04791000
7.92798996 4.81278992 7.85617018
11.08084965 11.12213039 7.92504978
3.10208011 12.68430042 3.09053993
7.93279982 11.17527962 4.81772995
1.52964997 1.60307002 1.66755998
1.57492995 4.67657995 11.13290024
0.09097000 0.05672000 9.50022030
0.01435000 9.58570957 6.37322998
1.63027000 8.07738972 7.90100002
6.30641985 6.54497004 6.27972984
1.57166004 1.47702003 8.03940010
3.18619990 0.02280000 9.56577969
1.46464002 4.66586018 8.02210999
0.06041000 3.17726994 3.14102006
4.74035978 7.96434021 7.88148022
0.01542000 0.01404000 3.00190997
3.13702989 12.70621967 6.34073019
1.52498996 11.17910004 1.61250997
4.70184994 7.96096992 4.78603983
0.01914000 6.22313023 3.24482989
7.98011017 1.49710000 7.94738007
9.48536015 3.12840009 9.56972980
4.65829992 11.14373016 1.60437000
7.91047001 7.92865992 4.79312992
9.46072006 9.56101990 6.34396982
9.47875977 6.29730988 6.36392021
11.06418991 4.70648003 4.74069023
7.94000006 7.92117023 1.58949006
7.93942022 4.70857000 1.62673998
9.46461010 6.33900976 3.19782996
7.98616982 1.59986997 1.56345999
9.52552032 3.12451005 3.17225003
6.33015013 12.66734982 6.35275984
7.96261978 11.17527008 1.60078001
4.70955992 1.43864000 4.78418016
4.69119978 11.12977982 7.89543009
3.14733005 6.35184002 3.19927001
1.53778994 4.72299004 1.59363997
-0.00445000 3.07533002 0.03313000
7.94682980 4.70230007 11.18117046
8.00030041 11.17800999 11.11802006
1.57282996 4.75630999 4.71645021
3.17436004 9.51648045 6.36137009
1.60854995 11.16897011 4.78157997
4.72805023 7.96262980 11.10538960
4.66208982 11.12835026 11.10521030
3.21023989 9.50876045 9.50487995
1.59844995 1.56584001 11.11182022
0.06994000 3.12334991 9.56190968
9.47805023 12.66874981 3.13975000
7.95073986 11.10634041 7.90733004
9.49129009 6.31644011 12.70409012

0.00054000 -0.00093200 -0.00106000
-0.00075100 -0.00043000 0.00047000
0.00016300 0.00059600 -0.00004200
0.00032100 0.00258400 -0.00027000
-0.00051100 0.00310500 -0.00102800
-0.00057800 -0.00071200 -0.00207500
-0.00358000 0.00047600 0.00047000
0.00115900 -0.00227500 -0.00087800
-0.00202800 0.00008100 0.00027400
0.00108700 -0.00413100 -0.00320800
-0.00018900 0.00072000 -0.00090600
0.00099800 0.00079500 -0.00163900
-0.00074700 -0.00024600 -0.00118700
0.00253500 -0.00028000 -0.00108200
0.00127600 0.00052800 0.00017200
-0.00001400 -0.00046200 -0.00001600
-0.00206200 -0.00039200 -0.00239700
0.00564000 0.00309500 0.00128500
0.00134000 -0.00074500 0.00011300
-0.00501100 0.00094200 -0.00028200
0.00393400 0.00194500 0.00180700
0.00053500 0.00226000 0.00030300
-0.00227900 0.00202600 -0.00440800
-0.00125900 0.00154300 -0.00173800
-0.00116700 -0.00038600 -0.00098900
-0.00055100 0.00089400 0.00125300
0.00060600 0.00240700 0.00005500
0.00397000 0.00010100 0.00120600
-0.00490800 0.00058700 -0.00095300
-0.00014900 0.00012100 0.00008500
0.00120500 0.00091500 0.00061500
0.00291900 0.00079000 0.00179700
0.00328900 -0.00766300 0.00333700
-0.00532400 0.00360800 -0.00032200
-0.00143800 -0.00090000 -0.00157300
-0.00145400 -0.00138400 -0.00089800
-0.00238800 -0.00347500 0.00077100
-0.00271800 0.00034300 -0.00107700
-0.00243900 0.00050000 -0.00040800
-0.00048400 0.00040500 -0.00151100
0.00042400 0.00052500 0.00014300
0.00236900 0.00226100 -0.00010500
-0.00196000 0.00049900 -0.00029300
0.00233900 0.00037600 0.00048200
0.00028400 -0.00002200 0.00157200
-0.00242500 0.00120000 0.00003700
-0.00176000 -0.00175900 -0.00191600
0.00212400 0.00170200 0.00125700
0.00178800 -0.00071000 -0.00021400
0.00019400 -0.00303700 0.00131900
-0.00306500 0.00319100 -0.00312800
0.00190500 -0.00158100 0.00067400
0.00151500 0.00126700 0.00131300
-0.00081700 0.00003900 0.00239800
-0.00069400 0.00015700 0.00301900
0.00194700 0.00150500 0.00212700
0.00097600 -0.00130500 0.00224000
-0.00036900 -0.00180600 0.00798500
0.00037900 0.00078600 0.00036200
-0.00351200 -0.00251600 -0.00004300
-0.00023400 -0.00052200 0.00095500
0.00087500 -0.00066600 0.00100100
-0.00134800 -0.00017600 -0.00054600
0.00324300 0.00285700 -0.00213100
0.00122700 0.00297300 -0.00064600
0.00581800 -0.00092400 0.00104600
0.00121600 -0.00342500 -0.00168500
-0.00537100 0.00234500 0.00128100
0.00011200 0.00220700 -0.00296000
0.00583100 -0.00260100 0.00095300
0.00135100 -0.00053000 0.00224900
0.00016700 0.00096400 -0.00137900
-0.00679700 -0.00482400 -0.00028000
0.00069600 -0.00162400 -0.00216900
-0.00064600 -0.00093300 -0.00024800
0.00248700 -0.00252800 0.00094500
-0.00833400 0.00017200 0.00049800
0.00081500 0.00067000 0.00373400
-0.00103800 -0.00065600 0.00161300
-0.00076600 0.00010800 -0.00178100
0.00187000 -0.00109200 -0.00009400
0.00384600 -0.00119700 -0.00013900
-0.00441800 0.00082300 0.00332100
0.00025000 0.00186400 -0.00034800
-0.00224500 -0.00036700 -0.00087800
-0.00471100 -0.00386900 0.00453800
0.00509800 0.00062100 -0.00072500
-0.00230100 0.00031200 -0.00168200
0.00655300 0.00295500 -0.00088600
0.00052500 -0.00261100 -0.00068400
0.00316000 -0.00036700 0.00062300
0.00252500 0.00143200 0.00101000
-0.00142600 -0.00052100 0.00119300
-0.00055000 0.00299600 0.00181300
-0.00082800 -0.00271200 0.00142900
0.00144000 0.00109800 -0.00102400
-0.00081900 0.00088900 -0.00054300
-0.00250700 -0.00057700 -0.00018800
-0.00272500 -0.00054200 0.00096700
0.00215900 -0.00165700 -0.00008500
0.00002400 -0.00030600 0.00029400
-0.00200400 -0.00043000 -0.00082100
-0.00012700 -0.00089100 -0.00001800
-0.00063100 -0.00012200 0.00093000
-0.00116500 -0.00132000 -0.00104000
-0.00220000 0.00004500 -0.00038600
-0.00051400 0.00001100 0.00021100
-0.00145200 -0.00017200 -0.00219900
-0.00059200 0.00155600 0.00029300
0.00149300 0.00141600 -0.00020100
-0.00152000 0.00127100 0.00023900
-0.00142400 -0.00046000 -0.00014000
0.00064100 0.00007500 -0.00119600
0.00188200 -0.00169800 -0.00057000
0.00278100 -0.00096700 -0.00073600
-0.00105200 -0.00133000 0.00028400
0.00317800 0.00040700 -0.00022700
0.00259700 0.00114600 -0.00010800
-0.00078100 0.00085400 0.00060400
-0.00039700 0.00004100 0.00003400
0.00044400 0.00267500 -0.00103000
-0.00170100 -0.00243200 -0.00209100
0.00141600 0.00116200 0.00044800
-0.00009000 -0.00079500 -0.00137300
0.00390100 0.00169100 -0.00059100
-0.00063500 -0.00064800 -0.00169400
0.00469900 0.00101400 -0.00026500
-0.00210000 0.00011400 -0.00001200

-0.00339007  -0.00184784  -0.00184215  0.00000265  -0.00001648  0.00000069 

0