111  4  Ta 22 Ti 23 V 73 W 74   -1296.71697071  30.55145937  30.55145937 
1.0
12.83095127 0.36091983 -0.02231413
-0.03429482 12.94188414 -0.15474562
0.03242294 0.00412043 12.82981153
Ta Ti V W 
32 32 32 32 
Cartesian 
12.83590984 6.82132006 9.52581978
11.22784042 5.07753992 1.71579003
11.36970997 8.32485008 4.74323988
10.92860985 11.83784962 4.68949986
11.26243019 1.60728002 8.07839012
11.26686954 5.02379990 7.98737001
9.77818012 3.41568995 6.57247019
11.21893024 8.44367981 7.80777979
6.42467022 3.26417994 3.48961997
4.80660009 5.11610985 1.70567000
6.36644983 9.80140018 2.99632001
3.33583999 6.70584011 12.63269043
11.31081009 5.08196020 11.15699005
9.72509003 9.83370018 9.60748959
6.59871006 9.77589035 6.30019999
3.14018011 9.83722973 3.09442997
6.42460012 6.70283985 3.08361006
0.07962000 9.91166973 -0.05331000
12.78137016 6.67110014 0.13943000
1.87020004 11.48614025 7.85796022
0.15978999 3.05533004 6.71124983
0.14308000 0.03134000 6.49456978
4.75741005 4.88950014 11.31352043
12.69375038 10.43033028 3.52790999
1.34326005 8.04866982 4.52714014
1.58972001 8.15618038 11.61732960
6.61780024 9.78020954 9.41125011
7.93307018 8.31241035 11.18896008
4.76022005 1.88169003 8.15742016
6.44364977 13.07308960 9.62716961
8.15522957 1.82381999 11.32618046
2.94208002 6.64365005 6.31145000
11.22210026 11.70326042 11.01729012
6.22557020 3.45471001 6.06650019
9.68698025 6.65234995 9.86165047
3.45351005 12.75292015 12.63249969
4.85556984 1.91998994 1.81819999
7.95597982 5.10805988 4.91251993
6.68893003 0.23870000 3.52522993
6.49670982 6.65139008 0.06684000
6.58874989 10.16372967 12.66668987
9.53964043 10.04174042 3.14493990
6.36470985 0.26141000 0.26512000
11.52797031 2.00475001 4.55497980
9.68229008 10.15614986 12.69357967
8.28686047 1.83501995 4.92683983
7.94398022 7.76329994 7.96084976
11.46465015 8.14270020 1.54264998
3.20573997 3.13217998 3.26223993
0.18850000 9.72949982 9.52661037
1.86573005 11.34022999 11.05823040
0.06626000 6.07145023 6.28125000
3.09542990 6.41318989 9.88062000
4.90851021 4.88785982 4.51660013
4.80344009 1.61290002 11.55646038
1.60950005 1.87664998 4.98879004
3.19390988 3.32083011 9.59072018
4.79366016 4.97921991 8.11810017
6.29584980 6.56948996 9.74954033
6.58458996 3.07937002 9.91438961
1.71335995 8.36308002 1.44052005
4.54063988 11.43560028 4.81993008
0.17563000 0.29995999 12.47091961
2.97183990 3.47702003 6.47379017
11.41059971 8.26296997 11.16681004
9.87403011 0.28244001 9.55862999
11.37833977 1.91120994 11.26838017
3.20857000 9.74927998 -0.06367000
4.72380018 8.38092041 1.39530003
3.24469995 3.32719994 12.69933033
11.48993969 1.97853005 1.68248999
9.41792011 0.40395001 6.57139015
6.50227022 3.53748012 0.01559000
11.11124992 11.68060017 1.37750995
9.67693996 3.42375994 12.74104023
9.90820980 13.19001961 12.59772015
7.93361998 4.91621017 8.00932026
11.21343040 11.47609043 7.84329987
3.15019989 12.90200043 2.73801994
8.17959976 11.42986012 4.98780012
1.73737001 1.30140996 1.21538997
1.26776004 4.83947992 11.58110046
0.36816999 12.72778988 9.69886971
12.47529984 10.19003963 6.40984011
1.70239997 8.17988014 7.81135988
6.18733978 6.65015984 6.52580023
1.88168001 1.56403995 8.21255970
3.56296992 0.14273000 9.94867039
1.54206002 4.92115021 8.09762955
0.39065000 3.18230009 2.83666992
4.85164022 8.26043987 7.61233997
0.24093001 12.81694984 2.63497996
3.32584000 13.00376987 6.31102991
1.60461998 11.34667015 1.24454999
4.65033007 8.02943993 4.68633986
0.07936000 6.28669977 3.33756995
8.04757977 1.83164001 8.02779007
9.52859974 3.56181002 9.49100018
4.81225014 11.61616993 1.59160995
7.69905996 7.98626995 4.86264992
9.68253040 9.91829967 6.35206985
9.23729038 6.48504019 6.37868977
11.27458954 4.91283989 4.83750010
7.91821003 8.12018013 1.33929002
7.92623997 5.05567980 1.64558995
9.75582981 6.72713995 3.15353990
8.22243023 1.80451000 1.32374001
9.73365021 3.56691003 3.12289000
6.59472990 0.30348000 6.73063993
8.16909027 11.66388988 1.36043000
4.75794983 1.68861997 4.91289997
4.77784014 11.52532005 8.14881992
3.05150008 6.60753012 3.11257005
1.64697003 4.62819004 1.66399002
12.66884041 3.31016994 0.10369000
8.14221001 5.16599989 11.33250046
8.13969040 11.72585964 10.78874969
1.81598997 5.03836012 4.67887020
3.17044997 9.91162968 6.22512007
1.55215001 11.75067997 4.65201998
4.67082977 8.52560043 11.21629047
5.01783991 11.62440968 10.94966984
3.26568007 9.77075005 9.38027000
1.78426003 1.83345997 11.15688992
12.74201012 3.34967995 9.69042015
9.72780991 12.95806980 2.68567991
7.99745989 11.63840961 7.91299009
9.94130039 6.77882004 12.56723022

0.61911702 0.09384500 0.01212400
-0.13784599 0.01278800 -0.92634201
-2.51597905 -0.35493001 0.21192700
0.74479300 0.12264800 1.34835505
0.55745399 1.11910605 0.98437101
-0.58608699 0.54256898 1.08097506
-0.99395603 -0.09127200 -2.00962090
-0.06825800 -1.49976695 0.61435300
1.68320298 -0.67117703 -2.88528299
-0.39097500 -1.48464406 -1.20153701
0.09702100 0.58720398 0.51905203
-0.26209101 -1.15457797 2.27051306
-0.22654299 -1.25654399 0.49373099
-0.22985500 0.49140200 -0.86395198
-2.05447507 0.89375800 0.41032001
0.57364202 0.71607000 -0.17701399
-1.06518602 -0.08849000 0.01671700
-1.71780896 -0.24333000 -0.02030800
1.48241198 0.02617200 -0.47413599
-1.33557701 -0.54919201 0.72180498
-0.38063201 0.62386203 -0.87819999
-0.62081301 -0.08172300 0.12046300
1.31161594 -0.59350199 -0.12382200
0.71869200 -0.67639101 -3.31480908
1.74854004 1.16269696 1.52556503
-0.69597697 0.06192200 -3.95822501
-1.90081000 0.85593402 0.01030800
1.29488206 -0.07956300 -0.00447600
0.82969803 -0.82530397 -0.95253301
1.09848499 2.88189912 -1.68838000
1.13062704 -0.20616101 0.31202900
2.08723402 -0.17992900 0.98930198
0.70328599 0.37694699 -0.11409100
0.87736702 -0.73454398 3.35036612
-0.34278601 0.38362601 -2.27767897
-0.74146801 1.02073598 0.91391599
-0.12110700 -0.92225099 -1.16269195
0.49944600 -0.83199298 -1.12753499
-0.56568998 -1.00302601 -1.29711497
-1.17601097 -0.00487900 -1.32203698
-0.89795297 -0.41549999 0.64990503
-0.34305301 -1.12463796 -0.70405197
1.13202798 -0.41341901 -0.59907001
-0.74026000 -0.48491600 -0.00457100
0.01471400 -1.09749901 -0.49365199
0.04150200 -0.01506700 -0.62992102
0.01144800 1.93612802 0.72862899
-1.10657501 1.84615397 1.23204803
-0.30560699 0.43403900 -0.23908301
-0.37105101 -0.62773901 -0.37586701
-0.20961100 -0.32788801 0.12141400
-0.34331799 1.34592199 0.79624897
-0.45621100 0.77468997 -1.42759097
-2.35222197 2.34097004 1.48345900
0.35280401 1.57526100 -0.39580101
0.54293603 -1.88218904 -1.26061296
-0.73466402 0.40134299 0.85828602
0.04897300 -0.28806600 -0.05010600
0.06326600 0.34098801 0.07912800
-0.73310798 2.27019811 -0.80823100
-0.86335599 -0.83726501 1.98046005
1.69033206 0.80500102 -0.48811001
0.09524700 -2.63228989 1.64498901
1.77043402 -0.15929200 0.32535800
-0.29784700 0.94276702 0.04181400
-1.46497595 -0.94272602 0.35747099
-1.40015805 0.19363900 -1.25408006
1.12934697 1.78560495 0.11223100
0.23191699 -0.61293501 0.82451200
-0.66093200 0.25939000 1.00851595
-1.23187494 -0.90532798 -0.83630198
1.69312799 -1.25723302 -0.10248300
0.35090700 -0.17851999 0.47482401
1.85634100 -0.27009100 -0.21246700
0.08661100 0.65517801 0.78213900
-0.94123203 0.67093998 0.18945301
-0.51364303 0.53352201 -0.08716400
0.23652001 0.66830802 0.50924098
-0.14602700 0.84177399 1.15220404
-0.58115602 0.19659100 -0.78221798
0.17118201 1.33755302 1.40071702
1.47231901 -0.90502602 -1.37316203
-0.99046803 1.33620501 -1.29058003
1.74026299 0.61159903 -0.39636001
-0.37540400 0.78452402 0.20563400
0.08789100 -0.59105599 -1.27167499
-0.67069101 -0.43442699 -0.30798000
-2.11559606 0.03048800 -2.06549501
0.04535000 0.16319200 0.44595399
-1.32790303 -0.67977202 2.15560007
-0.58327901 0.32813001 1.46586204
-0.83432001 0.59605598 0.61577702
-0.26697400 0.91350198 0.46118799
0.55241102 0.79136300 1.26791406
0.08082000 1.47054601 0.20980901
-0.76971298 -1.07354403 -1.01095402
0.49878600 0.49337900 1.16203701
0.56671602 -0.76902699 1.80055106
0.53906602 -1.78475404 0.42642400
2.51479197 1.56093395 -0.71500200
-1.71844494 0.01612000 0.12788300
3.48307109 0.15810600 0.13924401
-0.41655499 1.07933104 -0.84571701
1.88734603 2.12999701 1.66794002
2.36368203 -0.66264999 -0.34850901
-1.37144804 -0.22421899 0.07207500
0.33157000 1.21211505 1.71856999
-0.50638503 -1.38307500 0.63004798
-2.39705300 -1.09702504 -2.37619996
-1.42459202 -1.04944503 0.41144699
-0.11407000 -0.86405098 0.06066800
1.08596396 -0.83912897 -2.96197200
1.77849197 0.27732599 -0.69216800
0.82251102 1.50559497 -1.40890002
1.37932599 2.02924800 -0.71531999
-0.46663600 -1.88955700 -0.60378200
1.82097900 -1.31693900 2.66632295
-2.14009809 -2.38943601 -0.11907300
-0.35484499 -1.78229201 0.09519600
1.17578197 -1.55857503 0.07591100
1.42810905 -0.86284000 -0.87713099
-1.38882804 -2.67188692 2.59250212
0.46195301 -0.50439900 0.39094099
0.02097900 -0.95797497 0.06030000
1.22080505 1.04882097 -0.24852800
-0.86253399 3.26265502 1.48027897
1.64666104 -1.37423003 -0.43204299
-2.69015288 -0.25556001 2.51615810

0.00782884  0.01402573  0.00342609  -0.00541273  -0.00045594  0.00568548 

0