111  4  Ta 22 Ti 23 V 73 W 74   -1296.91385062  30.35457946  30.35457946 
1.0
12.82838700 0.35427228 -0.02394508
-0.03426833 12.93486300 -0.15154068
0.03240045 0.00411757 12.82090900
Ta Ti V W 
32 32 32 32 
Cartesian 
12.82824993 6.81196022 9.51517010
11.22537994 5.06985998 1.71668005
11.36135960 8.31608009 4.73626995
10.92483997 11.82009983 4.67448997
11.25531006 1.60724998 8.06947994
11.26253033 5.01358986 7.98162985
9.77326012 3.41408992 6.56893015
11.21298981 8.44042015 7.79738998
6.42059994 3.25242996 3.48460007
4.80382013 5.10165977 1.69946003
6.36507988 9.78872013 2.98731995
3.33481002 6.70086002 12.62051964
11.31009007 5.07735014 11.14109039
9.72910976 9.82044983 9.60762978
6.59736013 9.76371956 6.28964996
3.14491010 9.83664036 3.09896994
6.42697001 6.69718981 3.08641005
0.07724000 9.90400028 -0.06291000
12.78592014 6.66609001 0.13665000
1.86465001 11.47706032 7.85426998
0.16395999 3.05120993 6.70831013
0.14293000 0.02664000 6.49075985
4.75022984 4.88808012 11.30233002
12.69040012 10.40979004 3.52929997
1.35222995 8.04368019 4.52618980
1.59748995 8.15725040 11.61542988
6.61358976 9.77890015 9.40637016
7.93544006 8.30368042 11.18387032
4.75323009 1.87091005 8.14906979
6.44345999 13.05856991 9.62907982
8.15501022 1.81893003 11.31239033
2.94443011 6.64142990 6.30942011
11.23233032 11.68552971 11.00687027
6.24994993 3.48272991 6.06917000
9.68015003 6.63688993 9.83069038
3.41423011 12.73365021 -0.14401001
4.84618998 1.90911996 1.79896998
7.92758989 5.09873009 4.92539978
6.69264984 0.23048000 3.52097988
6.50545979 6.67934990 0.05605000
6.58252001 10.14538002 12.67051983
9.53792953 10.02604008 3.14339995
6.35326004 0.26819000 0.26668000
11.50477028 2.01016998 4.55137014
9.64902973 10.14153004 -0.12310000
8.27597046 1.84198999 4.91043997
7.94457006 7.75062990 7.95885992
11.47373962 8.11874008 1.54314005
3.18458009 3.12277007 3.27080989
0.16662000 9.74114037 9.51858997
1.88785005 11.34405041 11.06783009
0.04521000 6.07761002 6.26208019
3.10070992 6.40852022 9.86441994
4.90312004 4.88304996 4.49517012
4.82806015 1.60817003 11.52097034
1.61461997 1.85933006 4.97522020
3.18913007 3.30802011 9.59391975
4.79588985 4.95557022 8.12073994
6.29498005 6.53076982 9.72931957
6.58224010 3.08719993 9.90709972
1.72566998 8.36314011 1.42225003
4.53002024 11.39258957 4.81712008
0.18275000 0.28639001 12.44791031
2.98328996 3.46146011 6.48161983
11.39498997 8.24079990 11.15952969
9.84815979 0.28966001 9.55928993
11.37584972 1.92421997 11.25979042
3.21971011 9.73151970 -0.07725000
4.71287012 8.39151001 1.35518003
3.24993992 3.33024001 12.69744015
11.49767017 1.97075999 1.65855002
9.42016029 0.39438999 6.58468008
6.50118017 3.55676007 0.01818000
11.12215042 11.66222954 1.39372003
9.68451023 3.42695999 12.73892975
9.88490963 13.17893982 12.58887005
7.93465996 4.91158009 7.98916006
11.22290993 11.47544956 7.85343981
3.16482997 12.91578960 2.75124002
8.18889046 11.42131996 4.99711990
1.74263000 1.29266000 1.22534001
1.28143001 4.84686995 11.56346035
0.37397999 12.71331024 9.71090031
12.47696018 10.16555977 6.41039991
1.71461999 8.19863987 7.81867981
6.17550993 6.63941002 6.49522018
1.86194003 1.54986000 8.21047020
3.54170990 0.13158000 9.92759037
1.54550004 4.90826988 8.10171986
0.39335001 3.18427992 2.83326006
4.87125015 8.23768044 7.58949995
0.23917000 12.81470013 2.63949990
3.33031988 12.98458958 6.30177021
1.60713005 11.33236980 1.23795998
4.66032982 8.02997971 4.66792011
0.07569000 6.27863979 3.32347012
8.04444027 1.82457995 8.01315975
9.53207970 3.55134010 9.48548031
4.81778002 11.60680962 1.59122002
7.69653988 7.98495007 4.86012983
9.67936039 9.90462017 6.35061979
9.24190044 6.47586012 6.38219023
11.27814960 4.90985012 4.84097004
7.90871000 8.11752033 1.32597005
7.92321014 5.03867006 1.64489996
9.74682045 6.71150017 3.15310001
8.21378040 1.79595995 1.31496000
9.73386955 3.55802989 3.12037992
6.59375000 0.29541001 6.72805977
8.16116047 11.66621971 1.36666000
4.75791979 1.68116999 4.91224003
4.76613998 11.51037979 8.14338970
3.04544997 6.60979986 3.11655998
1.64540994 4.63512993 1.66559994
12.65701962 3.30224991 0.10660000
8.13854980 5.14498997 11.31227970
8.13805008 11.71916008 10.77593040
1.81087005 5.03385019 4.67986012
3.16591001 9.90221024 6.22300005
1.55140996 11.74341011 4.65692997
4.66442013 8.52103996 11.20641994
5.02091980 11.61682987 10.93622017
3.26777005 9.77091026 9.38191986
1.78929996 1.82909000 11.14249039
12.74466991 3.34260011 9.68017960
9.72054958 12.94855976 2.68623996
7.99238014 11.62034035 7.90095997
9.92436028 6.77337980 12.55362034

0.69331700 0.09744800 0.02576100
-0.15406901 0.04728200 -1.00169396
-2.49309611 -0.42243099 0.19134299
0.78522599 0.15052600 1.46770000
0.58084202 1.03456903 1.03041399
-0.52648902 0.57318300 1.04403901
-1.01976097 -0.13289700 -2.07015491
-0.07817100 -1.60793805 0.67137301
1.61220896 -0.70424402 -2.86731505
-0.36755300 -1.29554605 -1.21978402
0.07240200 0.63693702 0.54691702
-0.28091499 -1.25265205 2.31414390
-0.26321399 -1.20016098 0.58784503
-0.30518600 0.51249301 -0.87507498
-2.05754900 0.91347498 0.44944301
0.46875900 0.63538897 -0.33882701
-1.12763000 -0.12313100 -0.17662700
-1.70796800 -0.22420500 0.02685100
1.38702095 -0.05690700 -0.55246103
-1.35482705 -0.55719203 0.77741200
-0.33133501 0.66023803 -0.96450800
-0.72330600 -0.01741200 0.10198200
1.34969997 -0.62972802 -0.06192200
0.79713202 -0.64048398 -3.31882000
1.59285498 1.17659295 1.49865901
-0.83703101 -0.00648100 -4.27538395
-1.80557406 0.70616603 -0.03807200
1.31963396 -0.05515300 -0.18175800
0.88268501 -0.84473097 -0.88363302
1.04079294 3.02457905 -1.96896100
1.07512796 -0.12587500 0.36581001
2.00002289 -0.25673401 0.99008399
0.52496701 0.45768300 -0.08186100
0.60271603 -0.99111301 3.26499510
-0.32410499 0.35393700 -2.12207603
-0.47681499 1.19525504 0.43195400
-0.13595501 -0.77319700 -1.00350296
0.71685898 -0.70480698 -1.19427800
-0.64537501 -0.98154902 -1.28193796
-1.37724900 -0.36016899 -1.31306195
-0.87359399 -0.33575100 0.52432799
-0.35392001 -1.10224199 -0.73491901
1.20264602 -0.50751901 -0.66076303
-0.64745599 -0.54918998 0.01579200
0.01204000 -1.05280495 -0.50908703
0.13840701 -0.09710900 -0.52059698
-0.09335300 1.97536802 0.66522700
-1.20215201 1.92430305 1.23531199
-0.14275301 0.39839500 -0.31110799
-0.24171600 -0.68894202 -0.29487401
-0.34539801 -0.41949400 0.10774500
-0.14195000 1.33345103 0.94264603
-0.49931601 0.80966198 -1.43267202
-2.37075305 2.26749492 1.55772495
0.05374300 1.49326503 -0.25511900
0.48326799 -1.81810999 -1.16051400
-0.67695701 0.41256800 0.78348100
0.03639100 -0.26295900 -0.08714400
0.12905300 0.48052999 0.10604600
-0.69471300 2.24335694 -0.88945001
-0.90079302 -0.82964599 2.24786592
1.80679798 0.98837799 -0.52834302
0.09718300 -2.48374200 1.75155497
1.62894297 -0.11514900 0.22793899
-0.21656901 1.00233102 0.05698500
-1.27252400 -0.98477602 0.31429100
-1.45186102 0.07426700 -1.21214199
1.10004902 1.99734294 0.20745400
0.36257601 -0.68025202 1.05531001
-0.65166301 0.18180600 0.92281902
-1.33526695 -0.96941298 -0.65733403
1.64024496 -1.23331797 -0.27826199
0.36062899 -0.35349801 0.38493401
1.72340405 -0.21059699 -0.27691200
-0.00238800 0.59747601 0.69881600
-0.78129399 0.62842399 0.15858901
-0.51050299 0.53212601 -0.01882200
0.15503199 0.61827201 0.43212000
-0.17285100 0.70244700 1.17613900
-0.61536598 0.18552899 -0.84088701
0.08720200 1.40195203 1.37362301
1.39939594 -0.93828303 -1.30638599
-1.01729500 1.38308096 -1.43247902
1.75617504 0.68888098 -0.43719199
-0.38309300 0.69687200 0.10182500
0.19028200 -0.59874201 -1.16857195
-0.61205202 -0.37609801 -0.29752201
-1.93336403 0.09780300 -1.92405105
-0.03040000 0.21216100 0.35734001
-1.34489298 -0.71959102 2.16880798
-0.68985701 0.38960201 1.54819405
-0.80938101 0.53497398 0.61491102
-0.29718500 0.97611499 0.47391200
0.46726701 0.80905998 1.35769200
-0.02879700 1.42867994 0.26309699
-0.69302797 -0.99553800 -0.89256400
0.49991000 0.53231800 1.31192398
0.54529202 -0.80321097 1.79251802
0.53661799 -1.80272806 0.53644502
2.63914299 1.45973098 -0.78035402
-1.69362903 0.08030200 0.12845799
3.46616292 0.22375999 0.01142700
-0.50352800 1.04333496 -0.95595801
2.03806806 2.15109110 1.87778497
2.34620595 -0.47424600 -0.35474899
-1.33935702 -0.18721700 0.09279000
0.39647400 1.27970004 1.75555897
-0.57134300 -1.39806902 0.65091699
-2.48937392 -1.03971195 -2.46972895
-1.40892100 -1.19997203 0.31877601
-0.01426400 -0.74556798 0.08873300
1.21306205 -0.78773803 -2.96241403
1.84849894 0.16981000 -0.82364202
0.83211201 1.47822905 -1.43076801
1.59173405 2.02816701 -0.85748798
-0.41917199 -1.70059705 -0.50812697
1.85652697 -1.40743005 2.79834604
-2.08648109 -2.37626910 -0.01082100
-0.37736401 -1.86534297 0.20645000
1.18361497 -1.60500598 -0.01736300
1.63049698 -0.94527400 -0.96379602
-1.60209405 -2.64398289 2.80047798
0.39334601 -0.52850300 0.34555301
-0.01619000 -0.94247401 0.22716600
1.21771896 1.04721999 -0.24223700
-0.75950998 3.29154396 1.48940599
1.69059706 -1.33407497 -0.26243401
-2.56318307 -0.35940000 2.49067807

0.00644512  0.01222951  0.00165328  -0.00513419  -0.00051647  0.00564154 

0