111  4  Ta 22 Ti 23 V 73 W 74   -1327.43419176  -0.16576168  -0.16576168 
1.0
12.63784465 -0.03335262 0.03208109
-0.03330827 12.71855684 0.00407685
0.03205424 0.00407358 12.68391323
Ta Ti V W 
32 32 32 32 
Cartesian 
0.06954000 6.37572002 9.50288963
11.05673027 4.67949009 1.63585997
11.07483959 7.91952991 4.77405024
11.02756977 11.14912987 4.81034994
11.08160973 1.48225999 8.05751991
11.04187012 4.70066977 8.00809956
9.47498035 3.11841011 6.37831020
11.03195000 7.94521999 7.85492992
6.28556013 3.08020997 3.22310996
4.70077991 4.70094013 1.59606004
6.31056023 9.56107044 3.15295005
3.18210006 6.35864019 12.66606045
11.06886005 4.63551998 11.17403984
9.54360962 9.56597996 9.56589985
6.29794979 9.51972008 6.32337999
3.17302990 9.57328033 3.14225006
6.27816010 6.42393017 3.15819001
12.50541973 9.62563038 0.06894000
0.05332000 6.33832979 12.65649986
1.59265006 11.14402008 7.98050022
0.06434000 3.15588999 6.33489990
0.05807000 0.01930000 6.38050985
4.74316978 4.60571003 11.20236969
0.01294000 9.66244030 3.12103009
1.55754995 7.96501017 4.76974010
1.60520005 8.06785965 11.11616039
6.32052994 9.53682041 9.52816010
7.95665979 7.91321993 11.12683010
4.66764021 1.50321996 7.95309019
6.30815983 12.68585014 9.57598019
7.99148989 1.59518003 11.17564964
3.12229991 6.35585022 6.45655012
11.07639027 11.42471027 11.03240013
6.35007000 3.03537989 6.38554001
9.42467022 6.28200006 9.55574036
3.06270003 12.70503044 0.07472000
4.68688011 1.67645001 1.50223994
7.87036991 4.78411007 4.79446983
6.31325006 12.68188953 3.11409998
6.28403997 6.38537979 0.04693000
6.29357004 9.55951023 0.02971000
9.40264988 9.56702995 3.14219999
6.30051994 12.64509964 0.04644000
11.08378983 1.52583003 4.68155003
9.50026989 9.59364033 0.06514000
8.00792980 1.46008003 4.75846004
7.89665985 7.86294985 7.91433001
11.06770039 7.81056023 1.67393994
3.09767008 3.12770009 3.22372007
12.53302002 9.51185989 9.53993034
1.61593997 11.15369034 11.04971027
0.07210000 6.25368023 6.36537981
3.16057992 6.32531977 9.46749973
4.76310015 4.82989979 4.82628012
4.72352982 1.68525004 11.16100979
1.54762995 1.46337998 4.58236980
3.07918000 3.19684005 9.49851990
4.93967009 4.83407021 7.74505997
6.30414009 6.29444981 9.56982994
6.39289999 3.19475007 9.44659042
1.58337998 7.94676018 1.60174000
4.67575979 11.18490982 4.78369999
0.01663000 0.04971000 0.09291000
3.08242989 3.14437008 6.35112000
11.04327965 7.83835983 11.20049000
9.42389965 12.67792034 9.52079010
11.06099987 1.54534996 11.16526985
3.23785996 9.58887959 0.02355000
4.62619019 7.93865013 1.60360003
3.02027011 3.16905999 12.68943977
11.06402016 1.59238994 1.62811005
9.44777966 12.63321972 6.43605995
6.44160986 3.22962999 0.02969000
11.05570030 11.31517029 1.70887005
9.47856998 3.08208990 0.06485000
9.49621964 0.01501000 0.04832000
7.90973997 4.81261015 7.85659981
11.05924988 11.12234020 7.92591000
3.09561992 12.68422985 3.09042001
7.91623020 11.17510986 4.81715012
1.52802002 1.60282004 1.66700995
1.57367003 4.67629004 11.13292027
0.08970000 0.05703000 9.50111008
0.01418000 9.58623028 6.37334013
1.62557995 8.07699966 7.90115976
6.29231024 6.54406023 6.28076982
1.57008004 1.47721004 8.03958988
3.17903996 0.02272000 9.56564999
1.46440005 4.66670990 8.02147961
0.06009000 3.17613006 3.14083004
4.73202991 7.96409988 7.88171005
0.01608000 0.01431000 3.00217009
3.13010001 12.70617008 6.34101009
1.52149999 11.17986965 1.61243999
4.69238997 7.96023989 4.78665018
0.01930000 6.22375011 3.24436998
7.96326017 1.49714994 7.94758987
9.46566010 3.12859011 9.56968021
4.64847994 11.14391041 1.60391998
7.89434004 7.92841005 4.79297018
9.44266987 9.56103039 6.34426022
9.45893955 6.29720020 6.36383009
11.04236031 4.70640993 4.74062014
7.92347002 7.92182016 1.58959997
7.92205000 4.70825005 1.62581003
9.44592953 6.33872986 3.19778991
7.96881008 1.59947002 1.56298995
9.50627995 3.12406993 3.17224002
6.31740999 12.66740990 6.35240984
7.94666004 11.17531013 1.60008001
4.69958019 1.43918002 4.78415012
4.68191004 11.13014984 7.89562988
3.14121008 6.35223007 3.19915009
1.53566003 4.72249985 1.59394002
-0.00417000 3.07481003 0.03289000
7.92953014 4.70216990 11.18097019
7.98462009 11.17817974 11.11878967
1.57070005 4.75640011 4.71645021
3.16736007 9.51620007 6.36146021
1.60476005 11.16909981 4.78122997
4.71952009 7.96304989 11.10536957
4.65271997 11.12784958 11.10517025
3.20223999 9.50883007 9.50452042
1.59621000 1.56508994 11.11157990
0.07015000 3.12338996 9.56194019
9.45944023 12.66917038 3.14001989
7.93579006 11.10706043 7.90762997
9.47237968 6.31658983 12.70438004

0.00174600 -0.00370800 -0.00187500
-0.00118100 -0.00096400 -0.00168300
-0.00286900 -0.00105600 0.00011000
-0.00197300 0.00100400 -0.00034200
-0.00058400 0.00401900 0.00004800
-0.00144900 -0.00165100 0.00099600
-0.00373900 0.00055600 0.00064900
-0.00119100 -0.00170800 -0.00201600
-0.00090100 -0.00165600 -0.00165100
-0.00119100 -0.00012500 -0.00172700
0.00170800 -0.00060600 -0.00125400
0.00073200 0.00131200 -0.00084900
0.00008200 -0.00291600 0.00042500
-0.00043300 -0.00093900 -0.00085300
0.00157500 0.00095400 0.00127300
-0.00123500 0.00116600 -0.00006200
0.00109900 0.00027400 -0.00194700
0.00529700 -0.00011900 0.00327500
0.00190000 -0.00384200 -0.00033000
-0.00141500 0.00060900 0.00000700
0.00459800 0.00546400 0.00057200
0.00187000 0.00253400 0.00042400
-0.00113500 0.00602000 -0.00338600
0.00153100 0.00033400 0.00080000
0.00120400 0.00176300 -0.00044800
0.00259900 -0.00034300 0.00090800
-0.00000300 0.00288300 0.00218600
0.00249200 -0.00121700 -0.00000000
-0.00058900 -0.00384800 -0.00256100
0.00262700 -0.00214700 -0.00136600
0.00203000 0.00095800 -0.00027800
0.00111500 0.00097000 -0.00049400
0.00223500 -0.00685500 0.00436400
-0.00408200 -0.00088200 -0.00064400
-0.00203000 -0.00132300 -0.00089300
-0.00179700 -0.00330400 -0.00341200
-0.00320500 -0.00584400 0.00401700
-0.00145900 0.00139500 -0.00094400
-0.00053900 -0.00090000 -0.00095800
-0.00012000 0.00098700 -0.00263200
0.00000900 0.00105600 -0.00046900
0.00049800 0.00097500 -0.00000200
-0.00094900 -0.00181600 -0.00125300
-0.00055100 0.00134200 -0.00102800
0.00049800 -0.00037800 0.00103600
-0.00186800 0.00035900 -0.00062200
0.00102500 0.00044900 -0.00263700
0.00018500 -0.00027900 -0.00019000
0.00093300 -0.00006300 0.00066100
-0.00124800 -0.00328500 0.00134100
-0.00308700 0.00479200 -0.00319900
0.00273400 -0.00207100 -0.00031300
0.00122100 0.00358400 0.00173500
-0.00142100 0.00186200 0.00057400
-0.00012000 -0.00018300 0.00215900
0.00244200 0.00213200 0.00091600
0.00076000 0.00002900 0.00051700
-0.00163600 -0.00259700 0.00590400
0.00200800 0.00319200 0.00135900
-0.00387600 -0.00381200 0.00105100
-0.00110900 -0.00122300 0.00070900
-0.00166300 -0.00122400 0.00176300
-0.00021200 0.00245100 -0.00022000
0.00159600 0.00327200 -0.00222100
0.00020800 0.00139700 0.00083700
0.00263500 -0.00027000 0.00250300
-0.00005700 -0.00159000 -0.00167100
-0.00294200 0.00320200 -0.00055300
-0.00241100 0.00254700 -0.00004200
0.00505000 -0.00205600 0.00079000
0.00010500 0.00069500 0.00094600
-0.00088300 0.00215500 0.00007000
-0.00542100 -0.00310000 -0.00099800
-0.00121400 -0.00042400 -0.00068500
-0.00477300 -0.00078600 -0.00094300
0.00075500 -0.00205800 -0.00029800
-0.00740100 0.00085600 -0.00059800
0.00222700 0.00208200 0.00257500
-0.00207700 -0.00133000 0.00088400
0.00137200 0.00127400 -0.00093300
0.00411700 -0.00113700 -0.00097900
0.00372600 -0.00156700 -0.00042600
-0.00570000 0.00212600 0.00099300
-0.00056700 0.00078200 -0.00069500
0.00002700 -0.00043000 -0.00088000
-0.00241300 -0.00086500 0.00414200
0.00348400 0.00058800 0.00038100
-0.00221000 -0.00157400 -0.00152900
0.00498000 0.00187400 0.00160000
0.00286600 0.00044400 -0.00147000
0.00126100 0.00337100 -0.00025900
0.00356000 0.00162900 0.00142400
-0.00177500 -0.00204100 0.00080900
0.00096700 0.00190300 0.00218000
-0.00135600 -0.00028200 0.00189200
0.00113400 -0.00185400 0.00033000
-0.00003400 0.00064800 -0.00135000
-0.00233000 0.00042700 0.00017800
-0.00305900 -0.00253300 0.00171800
0.00102200 -0.00082100 0.00139800
-0.00105100 -0.00033800 -0.00076700
0.00003400 -0.00177200 0.00010700
-0.00279600 -0.00099800 -0.00114300
0.00312200 -0.00169500 0.00212400
-0.00023800 -0.00174200 0.00118900
-0.00345600 0.00022600 -0.00016200
0.00165300 0.00150000 0.00170900
-0.00296100 0.00121700 -0.00217900
-0.00051500 0.00035700 0.00270300
0.00152100 0.00102300 0.00302300
-0.00006200 -0.00165100 0.00149200
-0.00249700 -0.00120800 -0.00118500
0.00089000 -0.00226500 -0.00057900
0.00159100 -0.00133900 -0.00232400
0.00599800 0.00090900 -0.00060400
-0.00127700 -0.00088100 0.00059700
0.00484800 0.00169800 -0.00250600
0.00219100 0.00223500 -0.00065900
-0.00058900 0.00068400 0.00055900
0.00139300 -0.00039400 0.00008600
-0.00495200 0.00280200 -0.00169900
-0.00447900 -0.00139500 -0.00176900
0.00176900 0.00061800 0.00104900
-0.00051900 0.00201800 -0.00036800
0.00719200 0.00350400 -0.00176000
-0.00104900 -0.00047800 -0.00132900
0.00367800 0.00004000 -0.00084500
-0.00180200 -0.00177600 -0.00112200

-0.00672038  -0.00371745  -0.00371285  0.00000968  -0.00002005  -0.00000493 

0