111  4  Ta 22 Ti 23 V 73 W 74   -1296.59590545  30.67252463  30.67252463 
1.0
12.83233696 0.36399202 -0.02153255
-0.03430744 12.94518559 -0.15631505
0.03243410 0.00412185 12.83422586
Ta Ti V W 
32 32 32 32 
Cartesian 
0.00836000 6.46241999 9.55354977
11.22910023 5.08103991 1.71580005
11.37281036 8.33067989 4.74697018
10.93029976 11.84622002 4.69629002
11.26552010 1.60669005 8.08391953
11.26813984 5.02941990 7.98997021
9.78030968 3.41733003 6.57473993
11.22222042 8.44439030 7.81361008
6.42644978 3.26887989 3.49197006
4.80947018 5.12313986 1.70977998
6.36755991 9.80751991 3.00054002
3.33616996 6.70745993 12.64072037
11.31097031 5.08364010 11.16502953
9.72278976 9.84055042 9.60774994
6.59995985 9.78242970 6.30481005
3.13807011 9.83712006 3.09130001
6.42501020 6.70678997 3.08237004
0.08109000 9.91370010 -0.04799000
12.78020000 6.67356014 0.14128999
1.87295997 11.49085045 7.85945988
0.15854999 3.05684996 6.71334982
0.14313000 0.03451000 6.49785995
4.75985003 4.89026022 11.31857967
12.69806957 10.43931007 3.52607012
1.33885002 8.05033016 4.52707005
1.58515000 8.15581989 11.61748028
6.61985016 9.78011036 9.41291046
7.93275023 8.31637955 11.19151974
4.76486015 1.88809001 8.16240025
6.44406986 13.07901955 9.62761974
8.15464973 1.82737994 11.33345032
2.94078994 6.64453983 6.31360006
11.21809006 11.71216965 11.02173042
6.21449995 3.44183993 6.06832981
9.68857956 6.66104984 9.87660980
3.45604992 12.75732994 12.61102962
4.86353016 1.92584002 1.82558000
7.97025013 5.11014986 4.90721989
6.68751001 0.24304999 3.52853990
6.49410009 6.63736010 0.07185000
6.59053993 10.17327976 12.66456032
9.54065037 10.04817009 3.14632010
6.37311983 0.25753000 0.26427001
11.54008007 2.00180006 4.55577993
9.68233013 10.15946960 12.69165993
8.29094028 1.83318996 4.93528986
7.94440985 7.76890993 7.96287012
11.45765972 8.15538979 1.53961003
3.21673012 3.13795996 3.25738001
0.19869000 9.72206974 9.53046989
1.85209000 11.33761024 11.05313015
0.07678000 6.06676006 6.28989983
3.09317994 6.41671991 9.88607979
4.90938997 4.88900995 4.52794981
4.79149008 1.61345005 11.57308960
1.60540998 1.88505006 4.99310017
3.19183993 3.32722998 9.59195995
4.79232979 4.98752022 8.11760998
6.29800987 6.58734989 9.75901031
6.58370018 3.07621002 9.92197990
1.70560002 8.36067009 1.44835997
4.54608011 11.45611954 4.82163000
0.17067000 0.30353001 12.48206043
2.96722007 3.48645997 6.46868992
11.41921997 8.27443027 11.17166042
9.85173988 13.22371006 9.40087986
11.37810993 1.90556002 11.27167988
3.20240998 9.75916004 -0.05717000
4.72953987 8.37479973 1.41444004
3.24283004 3.32768989 12.70102978
11.48523998 1.98151004 1.69423997
9.41868019 0.40794000 6.56528997
6.50322008 3.53031993 0.01181000
11.10569954 11.68955040 1.36923003
9.67413998 3.42365003 12.74228001
9.91928959 13.19394016 12.60410976
7.93270016 4.91698980 8.01834965
11.20950031 11.47640038 7.83769989
3.14526010 12.89661026 2.72976995
8.17562008 11.43463993 4.98137999
1.73575997 1.30709004 1.21180999
1.26093996 4.83523989 11.59150982
0.36515999 12.73556042 9.69408035
12.47189999 10.20312977 6.40838003
1.69614995 8.17210007 7.80670023
6.19364977 6.65493011 6.53953981
1.89022994 1.56879997 8.21446037
3.57130003 0.14719000 9.95878029
1.54122996 4.92649984 8.09657955
0.38789999 3.17743993 2.83821011
4.83912992 8.27134991 7.62261009
0.24394000 12.81849003 2.63204002
3.32245994 13.01500988 6.31407022
1.60443997 11.35196018 1.24843001
4.64455986 8.02919960 4.69568014
0.08008000 6.28915977 3.34446001
8.04833984 1.83582997 8.03516960
9.52758026 3.56660008 9.49400997
4.80914021 11.62065029 1.59226000
7.70157003 7.98615980 4.86336994
9.68441963 9.92527008 6.35261011
9.23478031 6.48851013 6.37775993
11.27344036 4.91343021 4.83700991
7.92355013 8.12244987 1.34502006
7.92757988 5.06421995 1.64563000
9.76031017 6.73475981 3.15282011
8.22805023 1.80892003 1.32948005
9.73429012 3.57105994 3.12335992
6.59423018 0.30700001 6.73253012
8.17220020 11.66187000 1.35746002
4.75764990 1.69167995 4.91266012
4.78329992 11.53194046 8.15075016
3.05550003 6.60593987 3.11028004
1.64700997 4.62346983 1.66240001
12.67490005 3.31405997 0.10049000
8.14354992 5.17538023 11.34346008
8.14070988 11.72990036 10.79461956
1.81884003 5.04100990 4.67818022
3.17237997 9.91543961 6.22653008
1.55199003 11.75403976 4.64969015
4.67334986 8.52801037 11.22041988
5.01501989 11.62753010 10.95643044
3.26543999 9.77083969 9.37952995
1.78163004 1.83680999 11.16374016
12.74087048 3.35387993 9.69466972
9.73071003 12.96224976 2.68366003
8.00127029 11.64818954 7.91854000
9.94913960 6.78063011 12.57406044

0.57248098 0.08287700 -0.00335700
-0.11998400 -0.00038100 -0.89980698
-2.51243305 -0.33656299 0.21254499
0.73768598 0.10584900 1.27311003
0.54559499 1.17178702 0.95411003
-0.60242999 0.53057802 1.10673702
-0.97881299 -0.09199700 -1.98357105
-0.07040000 -1.44144499 0.58691001
1.71553099 -0.63719898 -2.86606312
-0.40775600 -1.57271802 -1.19910896
0.10082000 0.56294698 0.51160401
-0.25794399 -1.09725702 2.21688890
-0.20824499 -1.26906705 0.43770501
-0.19235501 0.47562200 -0.85732502
-2.04890108 0.87388498 0.39337799
0.62172103 0.74952900 -0.09855000
-1.04798400 -0.08836500 0.11525300
-1.73484099 -0.23992699 -0.04261200
1.51576698 0.06504100 -0.43674800
-1.32165205 -0.54721397 0.69742602
-0.41025800 0.60540003 -0.83084202
-0.57295102 -0.12127800 0.11258900
1.29250801 -0.56317002 -0.15836300
0.65491998 -0.67989898 -3.30613708
1.81931996 1.14768505 1.53956699
-0.60090500 0.07634700 -3.80027699
-1.94506001 0.93461698 0.04049500
1.27438796 -0.07906700 0.07373400
0.78274000 -0.81875801 -0.97313398
1.10517800 2.82840610 -1.58267200
1.16526496 -0.24729399 0.29361200
2.13245296 -0.14436799 0.98668802
0.78190798 0.32850000 -0.12218300
0.99543399 -0.61501098 3.35657096
-0.33474499 0.38400799 -2.34051609
-0.88462102 0.95762902 1.16038096
-0.12452100 -0.99215400 -1.23325503
0.39085001 -0.87141800 -1.10568702
-0.52743798 -1.01264703 -1.31019902
-1.10045397 0.16698700 -1.32535803
-0.90509099 -0.46045300 0.70525402
-0.33930799 -1.13219905 -0.69990897
1.07997596 -0.36581400 -0.57437199
-0.78674001 -0.45540601 -0.00619300
0.01968500 -1.11094403 -0.48836300
0.00599600 0.01176100 -0.67094398
0.05616800 1.91656601 0.74239701
-1.04974699 1.79905200 1.24120104
-0.38137600 0.44648901 -0.20727600
-0.43309301 -0.59624100 -0.42065799
-0.12754001 -0.28051901 0.13258900
-0.44582301 1.35964894 0.73117799
-0.42843899 0.75939798 -1.40440905
-2.31820107 2.37298489 1.44575202
0.48507300 1.62135601 -0.45058101
0.58592302 -1.90905201 -1.30026400
-0.73550397 0.39046201 0.87147897
0.05778400 -0.29162300 -0.03329600
0.01476700 0.26648000 0.06353100
-0.74333000 2.27471089 -0.78908598
-0.83083498 -0.83079201 1.86737704
1.63104105 0.72226602 -0.46758300
0.10593200 -2.66161799 1.59408605
1.83123302 -0.19975799 0.37824500
-0.34503999 0.90736502 0.02490600
-1.55825102 -0.91709501 0.38729501
-1.36004198 0.24602599 -1.26752400
1.13795495 1.66755700 0.06842100
0.17086600 -0.57675600 0.71739000
-0.66407001 0.28347600 1.04838800
-1.17008102 -0.87061298 -0.93649697
1.69409704 -1.26071095 -0.02066900
0.34285700 -0.11006000 0.53063202
1.92742896 -0.31115201 -0.18301700
0.12236600 0.67157000 0.82220501
-1.02011299 0.70555902 0.18658499
-0.51711500 0.54468203 -0.10802600
0.26539201 0.69975799 0.55416799
-0.14113601 0.91032600 1.15869296
-0.56462598 0.20356600 -0.74311602
0.20778500 1.30417204 1.39640403
1.51694703 -0.88128000 -1.42015898
-0.97806400 1.31277895 -1.23706496
1.74907005 0.56853199 -0.37831300
-0.37293199 0.82080501 0.26093099
0.03000300 -0.58348900 -1.30660200
-0.68862098 -0.44970199 -0.31790999
-2.18158507 0.00896000 -2.14528394
0.07530100 0.14331800 0.48731300
-1.31038904 -0.64380097 2.13946700
-0.50914299 0.29782999 1.42568195
-0.85159701 0.62500101 0.61564499
-0.25000599 0.87146503 0.46004099
0.58599597 0.78205800 1.21749103
0.14331900 1.49177301 0.18136100
-0.79984701 -1.09660900 -1.06404400
0.50283802 0.46119499 1.08622205
0.56635100 -0.75334102 1.80628502
0.55798697 -1.78427601 0.37000901
2.44854307 1.62043905 -0.67196703
-1.73800302 -0.02101600 0.12784500
3.48681211 0.13341500 0.19024500
-0.37451401 1.09087396 -0.80436099
1.82159495 2.11571503 1.57287002
2.38219810 -0.75663602 -0.34133801
-1.38925600 -0.24224900 0.07518500
0.28863299 1.17467797 1.68740594
-0.48522800 -1.37823904 0.62935299
-2.33798504 -1.11756098 -2.32860899
-1.43665695 -0.98504001 0.45120001
-0.16017000 -0.90915900 0.05211500
1.02793300 -0.85366601 -2.95686793
1.73093796 0.33114499 -0.62633902
0.81913602 1.51836801 -1.38474500
1.27319205 2.00903296 -0.62818497
-0.48380199 -1.97476006 -0.66408998
1.80869198 -1.29070401 2.61365795
-2.16542912 -2.40196204 -0.18075000
-0.34157801 -1.73795295 0.03223900
1.17802596 -1.52914298 0.12379400
1.33333898 -0.83776700 -0.82611901
-1.26514602 -2.69423795 2.47237206
0.48222199 -0.48889199 0.41112900
0.01890400 -0.98886800 0.00211800
1.21859097 1.04347706 -0.24003100
-0.90157402 3.24719405 1.50908005
1.60977101 -1.39944005 -0.50979298
-2.74676800 -0.20294200 2.53064108

0.00849295  0.01484379  0.00424140  -0.00553222  -0.00045890  0.00572181 

0