111  4  Ta 22 Ti 23 V 73 W 74   -1098.88546048  62.47441584  62.47441584 
1.0
12.37404788 -0.11809723 -0.11008871
-0.00000000 12.45468607 -0.29607666
-0.00000000 -0.00000000 12.53691063
Ta Ti V W 
28 28 28 28 
Cartesian 
4.93247986 4.78543997 1.24424005
2.83439994 5.97400999 12.19439983
0.01314000 6.40226984 -0.11054000
12.27536011 9.40620041 12.13813019
10.96399975 4.29049015 10.93562984
7.67841005 8.03614044 10.56215954
4.68806982 4.32764006 10.67673016
1.49596000 8.07061958 10.65268040
6.19488001 9.28328991 9.23501968
0.14589000 6.27704000 9.23340034
11.16256046 4.26947021 8.00076962
10.83263016 7.92676020 7.69936991
4.49242020 1.81149006 8.22383022
9.51196957 3.08119988 6.30094004
6.30942011 12.01972961 8.87629986
2.96216989 6.16188002 6.47268009
6.24989986 9.33652973 6.13165998
0.18849000 9.54491043 2.90752006
2.97706008 9.29502964 3.15697002
6.04323006 9.31999969 2.77897000
6.06246996 6.18308020 2.94927001
6.25386000 3.21795988 3.14416003
11.07678032 4.05775023 1.26120996
10.67984962 10.73386002 4.40859985
10.89070988 7.83068991 4.43686008
0.03008000 3.27806997 6.03769016
12.37259007 0.06839000 6.21075010
1.46384001 7.68656015 4.61429977
4.95527983 4.30529022 8.28271008
7.86765003 7.69083977 7.82951021
2.99134994 6.00439978 9.27394962
2.63399005 3.28940010 9.22292995
6.09112978 6.15089989 9.48235989
9.38642979 6.15518999 9.42733955
12.13531017 12.19816971 11.41473007
4.95446014 1.30098999 10.74077988
2.85397005 0.17757000 12.34823990
5.93039989 6.63761997 12.13138008
5.57079983 11.56659031 11.87100029
1.94708002 10.45882034 10.72636032
6.29197979 2.97605991 6.07509995
9.77735996 9.68494034 11.76239014
0.18698999 5.92371988 6.09812021
1.74163997 7.88252020 0.99149001
4.91446018 1.46382999 1.39885998
10.85289001 7.77882004 1.59395003
3.34335995 3.23796010 6.68111992
6.41373014 12.24363041 2.84360003
9.18023968 9.32493973 2.77434993
3.03468990 3.00336003 2.93580008
4.44561005 10.86071014 4.26050997
4.25138998 4.48709011 4.60653019
8.00166988 4.59537983 4.75802994
7.73741007 1.30291998 4.56178999
10.96813011 1.58502996 4.43510008
1.91278005 1.36410999 4.46962976
1.61949003 1.45106995 8.03757954
4.66564989 7.58701992 7.75651979
7.88990021 4.54976988 7.71806002
0.11428000 12.05142021 9.09879971
9.44260979 0.25103000 9.22264957
8.88603973 0.21843000 11.94925976
11.01704979 1.72844994 10.41088963
3.11806989 3.27371001 -0.07344000
6.06027985 2.84683990 -0.11317000
9.27431965 2.53807998 12.06869984
1.43965995 8.06752014 7.53348017
11.29881954 7.80398989 10.47049999
9.21185970 0.40814999 5.96023989
2.99990010 12.24349976 9.47179031
3.22560000 0.17843001 6.63835001
1.44635999 10.89490986 1.32611001
0.99234998 1.29911005 1.58513999
4.39757013 7.55221987 1.09863997
5.97215986 5.97515011 6.39143991
10.61956978 1.33720005 1.05671000
0.10703000 6.30373001 2.99569988
10.74662971 10.87347031 1.09033000
12.10321045 12.23097038 2.30078006
3.33700991 0.47130001 2.61828995
4.49234009 7.44014978 4.67611980
7.90986013 10.87411022 4.25475979
12.22245979 9.15441036 6.06513023
0.14239000 2.89490008 3.20994997
2.96763992 9.24903965 6.05625010
6.09357023 12.30690002 5.74300003
9.27311039 9.42691040 5.81538010
9.26441956 6.13177013 6.40691996
4.49981022 10.91005039 7.37357998
7.70401001 10.99540997 10.56875992
3.33669996 9.05016041 8.87362003
9.25137043 3.04651999 9.11219025
1.32086003 1.26707995 10.70794010
4.49866009 7.88579988 10.85169983
10.65441990 4.52802992 4.37736988
7.68845987 1.35838997 7.76160002
7.78292990 7.69998980 4.61648989
2.90634990 6.26852989 2.79038000
1.59574997 4.45842981 4.31717014
1.26734996 11.08757019 4.47974014
9.34654999 12.19614983 2.71419001
9.58967018 2.83793998 2.86223006
9.15550995 6.00576019 2.92108989
7.80932999 1.47987998 1.33650994
7.85137987 4.70827007 1.05141997
7.94986010 7.65466976 1.20409000
7.72956991 11.09914017 1.00755000
4.39484978 10.59348011 1.35176003
1.52285004 4.46737003 1.40626001
7.72621012 4.77212000 10.82365036
4.60619020 1.46291006 4.87890005
9.57180023 6.19401979 -0.19464000

-2.77504611 -2.07372403 0.39624599
0.94622099 -0.49798799 -1.48800802
-0.22001900 -1.36323702 -0.37279001
0.51522499 0.59649199 0.68143803
0.76196301 0.60088801 -0.06622800
2.66171908 -1.04524899 2.53786898
-0.35254499 -0.84627998 2.09589100
1.06169903 -1.22789395 -1.14383197
-2.69996405 1.67777097 -1.75863504
1.08201003 -0.54912102 0.17117900
-0.25751901 0.75222099 0.20661999
-0.14662699 -0.48173299 0.28198099
2.09182811 -3.77034092 -0.65121800
-0.46019399 -1.69399595 0.12059800
0.08692500 0.83590698 -1.06459904
0.04708600 -0.38411701 -0.37979901
-0.26340300 -0.22060500 -0.55349803
-1.99833000 -1.43831396 -0.68487501
0.64153802 -0.57272202 -1.91467297
1.85425901 -1.87492800 0.16701300
1.29945397 1.09110904 0.93372399
0.54712600 -1.23217905 -0.52770001
-0.35936201 1.65863097 -0.15764201
2.78663111 2.57839990 -0.34066799
-0.81855202 -2.69962406 0.55632102
1.61535501 -2.14604998 0.77809000
-0.31792000 0.33833399 1.57092595
-0.21017499 -0.03119500 0.18096800
1.68253195 1.36867404 -1.84764802
-0.23609500 0.48705801 -1.01163399
0.03920400 1.07172501 -0.23356700
-2.32939696 0.45624301 1.27093804
0.79006702 1.49369597 -1.44230294
0.41328901 -0.27957600 -0.18859901
-1.31398499 -1.32956696 2.21237612
-0.63777202 1.20806801 0.76383299
0.72904998 -0.27458799 1.93885601
2.83354402 -1.66673398 1.83732998
-0.10101500 0.05123300 -0.31231499
0.77401799 1.38709295 0.45556700
-0.12287500 0.63238102 1.14351702
-1.87932003 0.19630300 0.32528001
-1.20375705 1.53916097 0.78870201
0.14411800 1.69413495 1.75915301
0.11561200 0.06250900 -0.32850099
-0.00675100 -0.61243200 -1.36058104
-2.39439893 0.02921800 -1.99972904
-2.09145689 0.26107299 -1.21695006
-0.59131998 -0.89968401 -0.56353402
1.01184595 -0.45077199 -1.88911796
0.44846699 1.25899100 1.34763396
1.99617004 1.19664097 0.23173000
-2.23648000 0.49576801 -0.31062299
0.95727497 1.79935598 -0.58007801
-0.03586400 -2.44546103 0.23582500
-1.67367995 -0.45403799 1.39684999
-0.47876900 0.06884600 -0.50099498
0.91631299 -0.64447498 -1.31169999
-0.90733802 0.70501399 0.36410400
0.08814100 -0.33174601 -0.94603199
-0.26056099 -0.32829601 0.18465100
0.60219002 -0.19725500 -0.02706100
0.09421400 -0.63965303 -0.95051998
0.22916600 -1.49664795 -0.39478499
1.60189497 0.53247499 -0.17082100
-0.64990503 1.69866896 0.21592499
-0.76107198 -0.89755899 1.17408299
-1.76453400 -0.18651401 -0.06823500
0.85599101 -2.02469301 1.23109603
1.36340904 -0.10804300 -1.48094797
-2.07201195 -0.32086501 -1.09455299
0.69482702 1.42479599 -1.21586704
0.95767999 1.27699304 -1.49549699
-0.26120299 1.61995900 1.57137096
0.53406298 0.48628500 -0.79170799
1.72378695 -0.59100699 -0.01302800
-0.79818600 -1.61422503 -0.46052599
-0.09710200 0.14611900 -0.19796400
0.54661101 0.34243900 1.08976495
-0.31543499 -2.14378500 0.57661599
0.74529701 1.25447094 0.02485300
-1.73968995 -0.68339300 0.76132298
1.34256601 1.41537797 -0.41438800
-0.26803100 0.04165300 -1.59311295
0.59509599 0.51379102 -0.15392201
0.74549800 -0.58434802 1.93276298
-1.79040003 -1.07681799 2.51148200
0.81111097 0.24200501 -1.89551103
0.53867197 -0.70074302 0.69613600
2.16791701 -1.25138199 0.60093898
-0.84336603 1.82301605 1.26437700
-1.05162001 -0.83702999 2.11882305
-0.72665203 1.75298405 -0.66613901
-1.59095705 0.75967199 -0.44589701
3.24724603 1.45975494 0.27794400
-0.05849400 0.81957603 -0.28042400
-1.35311604 -0.13731100 -0.45784900
1.93833995 -1.09028900 0.28893200
-0.06738800 2.24792695 1.80278897
1.98870206 0.39242199 0.94163698
-0.86309397 2.15676093 -1.32281196
-3.74246001 0.83085799 -0.60578901
1.20321703 1.45908904 -0.64499497
-1.05845499 -0.21854600 0.62127799
0.29869500 -1.38749099 0.78754801
-0.89521301 0.80024499 -0.03898800
-0.40640199 -1.39162695 -0.56826401
-1.13952506 0.40552101 -0.24034600
-1.11060500 0.66219300 -0.45366901
-0.03290300 -1.77958500 0.31735501
0.57990998 0.71846497 -1.79198599
-1.49904597 0.33033499 -0.65229797

-0.03381084  -0.02956182  -0.03055126  -0.00326902  -0.00237924  -0.00406551 

0