111 1 Fe 26 -776.53924456 47.27189523999982 47.27189523999982
1.00000000 
    11.3365200000000002    0.0000000000000000    0.0000000000000000
     0.0000000000000000   11.3365200000000002    0.0000000000000000
     0.0000000000000000    0.0000000000000000   11.3365200000000002
100
Cartesian 
0.18059 9.80382 2.92213 
5.56381 9.26878 6.36347 
3.67663 7.47307 7.65874 
10.47347 0.13851 11.33368 
10.65387 4.79626 2.38832 
11.31057 0.45267 8.41467 
6.93305 9.78576 1.96630 
8.37183 7.90926 10.12764 
5.12276 0.31219 1.29453 
2.96283 0.69845 9.36072 
1.64105 8.81596 1.05656 
3.26775 2.97064 4.92922 
5.77027 2.94968 0.74744 
4.60037 6.95079 2.61431 
6.68940 5.50076 1.88454 
7.49427 2.77691 10.09143 
3.55801 1.87871 0.34715 
3.33389 10.49329 11.28833 
4.56678 0.12185 7.56392 
6.08767 7.45608 9.13512 
1.55371 6.73255 11.04209 
7.92373 1.10074 0.57182 
11.12903 7.34685 2.24900 
6.96468 0.68073 2.98078 
8.91078 8.48333 2.41179 
4.13903 4.14262 2.40490 
5.33295 5.42500 4.22561 
1.71503 2.50319 8.19013 
11.26258 4.35489 11.20848 
1.70476 5.59331 2.07915 
3.66526 1.67542 2.88957 
6.33170 7.76742 0.73037 
9.18531 1.79850 6.95879 
8.20494 3.76579 3.33595 
9.90886 10.46064 6.50147 
1.14455 3.49606 3.66724 
3.21716 9.67373 5.90603 
4.01883 4.84541 0.37481 
8.12286 10.19051 10.74095 
3.64955 5.24386 6.59039 
5.98476 5.13913 8.20376 
10.98315 8.11716 7.16488 
0.11188 6.00286 4.39124 
8.70809 6.22297 3.26448 
10.19176 9.73609 9.06328 
9.96772 5.70418 6.45805 
10.01262 0.86429 4.71750 
2.76767 5.56101 4.28236 
5.71052 2.82537 3.84723 
8.46038 0.60213 9.19921 
10.58677 8.93491 0.21327 
10.37091 3.49910 5.11647 
1.70049 8.01845 8.95235 
8.84416 6.55523 0.71072 
7.34622 11.04017 6.50710 
2.20190 8.09195 3.51327 
9.40148 11.00440 2.00323 
1.04503 1.48011 10.48055 
0.40417 1.58862 6.18805 
7.69164 5.23783 5.42412 
9.31398 4.97637 9.68207 
1.57646 3.41666 1.25736 
5.95000 6.94206 6.22002 
10.47041 2.41653 2.22261 
6.64985 5.17970 10.96700 
7.49039 2.03422 5.18755 
6.67470 1.77004 7.61760 
10.49981 8.52815 4.59718 
10.56697 3.84407 8.26509 
3.83084 9.69723 8.94002 
7.99285 3.88979 7.58951 
3.78577 5.55263 9.48962 
10.73313 7.08550 9.40127 
5.70371 3.55635 6.23907 
4.81086 3.19343 9.65930 
2.41038 3.70608 10.28371 
5.07952 0.93173 5.25960 
5.30907 9.96187 3.86233 
1.12952 10.23854 10.24114 
8.56838 3.92150 0.74713 
9.93289 2.38816 10.48703 
1.69842 7.19727 6.02692 
5.73586 9.88716 11.03078 
6.48257 7.69730 3.69956 
4.14795 9.14368 1.77729 
1.09988 4.52912 6.23341 
8.53910 7.00001 7.84517 
8.29682 7.95144 5.75363 
4.02494 7.80437 10.78392 
1.45453 5.77288 8.36367 
6.55608 10.21478 8.80147 
0.60217 10.44518 5.27681 
3.91706 7.55175 5.08154 
1.51600 0.17459 1.26841 
1.72826 10.05151 7.57922 
8.33808 10.26260 4.31890 
5.55904 0.78613 10.26520 
2.89308 10.43117 3.34493 
0.89464 1.02453 3.49770 
2.61495 0.56984 5.56408 

0.196708 0.605481 -0.954099 
0.215485 0.271342 0.319105 
0.683667 0.267030 0.166400 
-0.304396 -0.368726 -0.868527 
-0.222152 -0.147077 -0.253574 
-0.228786 0.550934 0.427611 
-0.179782 0.672276 -0.120930 
-0.065906 -0.173701 0.234338 
0.288287 -0.319818 1.046448 
-0.069114 0.255099 -0.061473 
0.509240 -0.068978 0.132888 
0.231801 0.685599 0.429068 
0.554381 -0.204364 0.468676 
-1.346944 -0.735669 -0.879782 
-0.428732 -0.474184 0.931172 
-0.418811 0.539312 -0.783688 
-0.358611 0.638263 -0.430919 
0.132761 0.482775 -0.201642 
0.290627 0.141831 -0.541802 
-0.552957 0.476213 -0.104978 
0.002431 -0.786119 0.044591 
-0.078279 0.122818 0.012867 
-0.060245 -0.138803 -0.210364 
0.243630 0.484181 0.495787 
0.174207 0.279615 -0.125679 
-0.766998 -0.482859 1.696643 
-0.067579 -0.945742 0.977607 
-0.158379 0.406711 -0.556392 
-0.456610 0.646807 -0.333974 
0.393703 0.894754 -0.132389 
-0.555251 -0.474296 0.075196 
0.348848 -0.728435 -0.154265 
0.550908 -0.371587 0.379425 
0.206392 -0.294993 -0.217061 
-0.280899 0.157119 0.482044 
0.249911 0.588337 0.346893 
0.423000 -0.175136 -0.684215 
0.184828 0.820295 -0.671294 
0.705199 0.193206 1.296374 
-0.009318 -0.005582 0.285798 
-0.191274 0.236466 0.152228 
-0.265388 0.001029 -0.228692 
0.581617 0.093791 -0.252764 
0.382767 -0.145445 0.321970 
-0.475892 -0.412255 0.234285 
0.480321 0.124242 0.163903 
-0.846085 -0.298093 -0.759223 
-0.321649 -0.515315 0.029172 
0.322241 0.600949 -0.865373 
0.438633 0.015175 -0.278305 
-0.200896 -0.075421 0.110687 
-0.924106 0.054799 -0.175752 
-0.075941 0.332729 0.633245 
0.506876 -0.460460 0.179537 
0.366428 0.350281 -0.395084 
-0.972860 -0.187325 -0.092080 
-0.304003 -0.019920 0.777047 
-0.177445 0.830801 0.478746 
0.139468 0.537764 0.052188 
-0.094218 -0.051902 -0.022039 
-1.517366 0.856504 1.034166 
0.558113 -1.275709 0.276768 
0.614883 -0.992630 0.871576 
-0.390368 -0.569034 -0.477672 
-0.246340 0.271949 -1.374160 
0.685373 0.033252 0.332035 
-0.570213 -0.211567 0.885189 
-0.237789 -0.698730 0.352844 
1.378738 -1.052456 -0.988096 
0.560090 -0.587401 0.096911 
0.583949 0.005609 -0.165735 
0.164591 0.761902 -0.921984 
-0.233525 -0.190686 0.307906 
-0.279840 0.299860 -0.323409 
0.226761 -0.091144 -0.040767 
-0.770324 0.005192 -0.479758 
0.233413 -0.274435 0.023783 
0.060580 0.133976 0.455437 
-0.083423 -0.276449 -0.483403 
0.209106 -0.134558 0.334941 
-0.003406 0.139568 -0.427410 
-0.393025 -0.128989 0.477202 
-0.368140 -1.054695 -0.023455 
0.873308 0.548739 0.438323 
0.648144 -0.274053 -0.435958 
0.212767 -0.535693 -0.331123 
-0.540896 -0.533016 0.640661 
-0.174393 0.456289 -0.744935 
-0.378907 0.103653 0.068160 
-0.157160 -0.699447 -0.244583 
0.181156 -0.170777 -0.842974 
0.798122 -0.292060 0.105326 
1.360517 0.021917 -0.565852 
-0.015645 0.072624 0.382349 
-0.821698 0.656829 0.462827 
-0.235769 -0.578665 -0.303268 
0.153433 0.536877 -0.812082 
-0.801607 0.864830 0.272519 
0.236055 0.017054 0.216341 
0.135999 0.539681 -0.074341 

-0.09326508750000001 -0.0839921375 -0.076560825 -0.0032548187499999996 0.0006212625 -0.0078231875 

2