111 1 Fe 26 -776.67934295 47.13179684999989 47.13179684999989
1.00000000 
    11.3365200000000002    0.0000000000000000    0.0000000000000000
     0.0000000000000000   11.3365200000000002    0.0000000000000000
     0.0000000000000000    0.0000000000000000   11.3365200000000002
100
Cartesian 
0.17501 9.79013 2.90538 
5.56732 9.28963 6.37417 
3.69811 7.49564 7.66535 
10.47675 0.13723 11.32434 
10.64050 4.79924 2.38109 
11.31850 0.43461 8.39860 
6.89494 9.77559 1.94539 
8.36908 7.91177 10.10668 
5.14868 0.29316 1.33748 
2.98798 0.70965 9.37308 
1.63490 8.82047 1.04284 
3.27223 2.97635 4.93822 
5.74920 2.91935 0.72630 
4.60304 6.94789 2.60427 
6.68783 5.48572 1.88043 
7.46215 2.77385 10.10319 
3.53980 1.85709 0.34208 
3.32848 10.52456 11.27542 
4.55503 0.11240 7.55761 
6.08692 7.46391 9.11304 
1.55265 6.71383 11.05558 
7.90910 1.13524 0.57482 
11.13011 7.31457 2.26773 
6.97630 0.68031 2.98322 
8.88369 8.49080 2.42934 
4.16715 4.14009 2.42085 
5.35488 5.41482 4.25289 
1.72244 2.47273 8.18819 
11.26680 4.37898 11.16763 
1.71985 5.62125 2.08642 
3.65801 1.69350 2.91078 
6.35891 7.73969 0.72603 
9.16274 1.81235 6.95412 
8.21325 3.76390 3.33291 
9.90735 10.46663 6.46755 
1.13146 3.51132 3.62916 
3.23088 9.68624 5.91074 
4.03554 4.84760 0.39197 
8.13248 10.19150 10.74852 
3.67686 5.28181 6.59522 
5.98486 5.12949 8.18553 
10.98141 8.12117 7.16604 
0.10125 5.99167 4.40808 
8.70794 6.22168 3.25051 
10.16141 9.72594 9.03047 
9.98031 5.70492 6.44735 
10.02858 0.88315 4.73785 
2.76397 5.57448 4.27435 
5.69881 2.86492 3.83963 
8.44836 0.59781 9.18555 
10.58066 8.96009 0.21000 
10.39577 3.51472 5.13859 
1.72749 7.98640 8.94257 
8.86399 6.57105 0.70110 
7.33688 11.05100 6.50814 
2.17319 8.07665 3.50780 
9.40094 11.01373 2.00737 
1.03022 1.51469 10.49290 
0.42751 1.57977 6.20279 
7.69843 5.22193 5.42934 
9.31825 5.00242 9.68175 
1.57935 3.41310 1.24993 
5.94588 6.93740 6.22746 
10.48870 2.41301 2.20980 
6.65698 5.17657 10.96018 
7.51634 2.05261 5.17159 
6.67127 1.73825 7.63094 
10.51066 8.49950 4.59890 
10.54831 3.83764 8.25096 
3.82526 9.68260 8.97769 
8.00042 3.89655 7.58913 
3.80870 5.54334 9.47114 
10.75267 7.08171 9.41089 
5.66932 3.54152 6.22456 
4.81665 3.19224 9.68934 
2.43303 3.71033 10.29019 
5.07327 0.92488 5.22430 
5.31762 9.98725 3.88756 
1.13724 10.26068 10.28037 
8.55706 3.93753 0.75368 
9.90153 2.39470 10.49036 
1.70905 7.18566 6.06668 
5.70960 9.91110 11.07192 
6.44595 7.69179 3.69198 
4.16521 9.15254 1.76924 
1.11391 4.49175 6.21300 
8.51945 7.02122 7.84196 
8.28918 7.95259 5.76109 
4.02290 7.77963 10.77085 
1.44596 5.74021 8.35838 
6.55977 10.20324 8.79954 
0.60293 10.43912 5.27738 
3.93139 7.52737 5.07288 
1.51361 0.16338 1.28361 
1.73359 10.04729 7.57692 
8.32084 10.27214 4.31741 
5.55436 0.76669 10.26896 
2.86989 10.44693 3.34690 
0.89729 1.02435 3.49023 
2.60220 0.56433 5.57321 

0.137933 0.594374 -0.823852 
0.224098 0.147277 0.304705 
0.685669 0.222348 0.140737 
-0.394943 -0.312486 -0.824934 
-0.124535 -0.161221 -0.323390 
-0.221848 0.525728 0.535034 
0.049192 0.690773 0.098021 
-0.043633 -0.149582 0.285683 
0.012400 -0.076647 0.897333 
-0.237438 0.300603 -0.051253 
0.576298 -0.124904 0.188675 
0.132439 0.710854 0.419364 
0.583777 -0.113740 0.646735 
-1.462151 -0.859498 -0.925198 
-0.457986 -0.492916 0.949593 
-0.298659 0.554283 -0.887863 
-0.237596 0.630478 -0.269415 
0.207473 0.375230 0.028389 
0.285347 0.074582 -0.500154 
-0.563974 0.412546 -0.070000 
0.001802 -0.785676 -0.003288 
0.013474 -0.035539 0.035955 
-0.159425 0.085474 -0.334049 
0.223213 0.525809 0.541384 
0.283836 0.256511 -0.172389 
-0.896888 -0.354597 1.567786 
-0.160395 -0.815941 0.836379 
-0.132442 0.493158 -0.512068 
-0.398902 0.535686 -0.226658 
0.358499 0.703398 -0.207730 
-0.536966 -0.560964 -0.049171 
0.240869 -0.580018 -0.183059 
0.645149 -0.426934 0.389845 
0.193464 -0.286158 -0.228871 
-0.326339 0.090856 0.593285 
0.322519 0.510179 0.533701 
0.437010 -0.356166 -0.744875 
0.153828 0.873122 -0.804365 
0.567489 0.208996 1.251237 
-0.096478 -0.167068 0.214156 
-0.186341 0.274601 0.190582 
-0.243143 -0.024122 -0.200443 
0.682338 0.088608 -0.318352 
0.314990 -0.157361 0.389438 
-0.450046 -0.377628 0.349453 
0.364233 0.199422 0.302970 
-0.874274 -0.282920 -0.862549 
-0.268840 -0.644336 0.107989 
0.591327 0.385831 -0.775424 
0.440408 0.019935 -0.208864 
-0.206880 -0.158564 0.154966 
-1.003303 0.015472 -0.214642 
-0.186213 0.396452 0.668720 
0.471775 -0.459591 0.185145 
0.414826 0.322996 -0.423130 
-0.823169 -0.107763 0.015178 
-0.324293 -0.017208 0.727982 
-0.086901 0.682664 0.377897 
0.025438 0.576980 -0.010411 
-0.070675 -0.011555 -0.051546 
-1.488743 0.774199 0.967661 
0.496748 -1.051444 0.199418 
0.666913 -0.931421 0.884663 
-0.414988 -0.555500 -0.497178 
-0.274885 0.298844 -1.374320 
0.458171 0.059805 0.375953 
-0.617077 -0.028471 0.779722 
-0.257410 -0.598622 0.314720 
1.370933 -1.012008 -0.909514 
0.624123 -0.435809 -0.025866 
0.491690 -0.063984 -0.158224 
0.122371 0.750020 -0.799607 
-0.243805 -0.120966 0.281296 
-0.131563 0.247539 -0.189247 
0.246636 -0.104494 -0.161223 
-0.851795 -0.011061 -0.497470 
0.232267 -0.230357 0.117451 
-0.004301 0.093695 0.343816 
-0.202409 -0.375982 -0.775932 
0.252669 -0.155071 0.307047 
0.067991 0.169293 -0.424366 
-0.357066 -0.119373 0.314846 
-0.129604 -1.316015 -0.353796 
1.066881 0.616901 0.494201 
0.480742 -0.281103 -0.272015 
0.271244 -0.460898 -0.247169 
-0.421651 -0.653923 0.591701 
-0.164189 0.481543 -0.856627 
-0.320129 0.164607 0.131137 
-0.105914 -0.614810 -0.199477 
0.152523 -0.190197 -0.674234 
0.800241 -0.328859 0.031344 
1.140713 0.335991 -0.521962 
-0.066162 0.143440 0.316831 
-0.804089 0.598370 0.505929 
-0.204103 -0.590661 -0.310558 
0.136705 0.624479 -0.817453 
-0.648341 0.659393 0.216944 
0.227286 0.027744 0.290836 
0.234963 0.600915 -0.119823 

-0.093734825 -0.08475821874999999 -0.0770583 -0.0029671249999999997 0.0008586437500000001 -0.0078088 

2