111 1 Fe 26 -775.44358445 48.36755534999986 48.36755534999986
1.00000000 
    11.3365200000000002    0.0000000000000000    0.0000000000000000
     0.0000000000000000   11.3365200000000002    0.0000000000000000
     0.0000000000000000    0.0000000000000000   11.3365200000000002
100
Cartesian 
0.31042 9.96449 2.50955 
5.81976 9.19175 6.40808 
3.84049 7.58258 7.06828 
10.44679 0.08870 11.16490 
10.48171 4.28070 2.70051 
0.07542 1.03776 8.73677 
6.75283 9.83350 1.79955 
8.15457 7.55890 10.75654 
5.45460 0.30059 1.26796 
2.81287 0.96042 8.93478 
1.96287 8.86268 0.97201 
3.81376 3.14733 5.31835 
6.26691 3.10210 1.14232 
3.88572 6.41489 2.23813 
6.36603 5.31365 2.55392 
7.33917 2.97757 9.86708 
3.65803 2.47277 11.20682 
3.72127 10.99724 10.79370 
4.78054 0.25879 7.54703 
5.63557 7.50459 9.23833 
1.47093 6.29748 10.98517 
7.92159 1.38069 0.53040 
11.23147 7.12154 1.95881 
7.25898 0.87353 3.24433 
8.90160 8.41870 1.88935 
3.45103 3.93775 2.64795 
5.13047 5.15205 4.52717 
2.41361 2.86749 7.32033 
11.03829 4.72174 0.17731 
1.73572 5.53067 1.94512 
3.46208 1.60793 3.07762 
6.50677 7.36344 1.05825 
9.29371 1.76265 7.20839 
7.98252 3.49291 2.96041 
10.06448 10.67778 6.95838 
1.14637 3.56279 3.89733 
3.35197 9.70386 5.83905 
3.90781 5.00415 0.39784 
8.43177 9.93214 0.01988 
3.59100 5.03170 7.12309 
6.07092 4.86377 8.43472 
10.67816 8.20884 7.17611 
0.22559 6.04048 4.30734 
9.35857 6.40637 3.67153 
10.06478 9.39687 9.11285 
10.09183 5.88200 6.46855 
9.58649 0.70102 4.57652 
2.70162 5.83961 4.54514 
5.62314 3.06927 3.47830 
8.50300 0.40382 9.26284 
10.83189 8.55950 0.02994 
9.91951 3.28368 4.87070 
1.37361 8.10236 9.04601 
9.03798 5.81054 1.24788 
7.57102 11.27082 6.08072 
1.78421 8.10512 3.60662 
9.30866 10.94359 2.06639 
1.12472 2.00305 10.85706 
0.39903 1.96170 5.98732 
7.81450 5.07883 5.07391 
8.67829 5.15423 10.08260 
1.37737 2.60539 1.75481 
6.09132 6.61560 6.65587 
10.07673 1.77329 2.06684 
6.34092 5.53230 10.95013 
7.74300 2.48141 5.37621 
6.77384 1.89978 7.69707 
10.69007 8.42347 4.39337 
10.84347 3.67669 8.13881 
4.07415 9.47878 8.61130 
8.68832 4.05081 7.27970 
3.63117 5.94682 9.29071 
10.46973 6.63742 9.63266 
5.87398 3.63107 6.41684 
4.51452 3.38791 9.16496 
1.67617 4.30769 10.06788 
5.55401 0.99477 5.00214 
5.40635 9.89695 4.07197 
1.24817 10.72278 10.49230 
8.68979 3.50636 0.64960 
9.78295 2.57910 10.21870 
1.59654 7.52607 6.19152 
5.75495 9.69755 10.79576 
6.87961 7.51894 3.65986 
4.62416 9.19963 1.56255 
1.01584 4.53968 6.02391 
7.91399 6.44630 8.18788 
8.43496 7.86121 6.34051 
3.44347 7.93847 10.70109 
0.94643 5.74945 8.11532 
6.96352 10.23850 8.38739 
0.79450 10.26101 5.10593 
4.63920 7.37574 4.67093 
2.00437 0.22742 1.38255 
1.00305 10.58988 7.67210 
7.98754 9.66471 4.14789 
5.89095 0.92241 10.03860 
2.67761 10.43563 3.46885 
0.69751 1.13328 3.66617 
2.64473 0.93411 5.61634 

-0.213321 -0.105245 0.008891 
0.170754 0.037588 -0.101653 
-0.012153 -0.345867 0.432961 
-0.388765 0.461562 0.019792 
0.141477 0.429318 -0.846236 
-0.917276 0.328688 0.287722 
1.875082 -0.014069 1.117075 
0.529317 -0.016295 -0.693977 
-0.726987 1.106774 0.268919 
-0.138592 0.388217 0.175604 
-0.392009 -0.071707 0.425133 
-0.992860 -0.067170 -0.896735 
-1.021728 -0.075589 -0.629329 
0.897850 1.392023 0.626433 
0.019822 0.192997 -1.028055 
-0.429753 0.045875 -0.165085 
-0.201279 -0.678231 0.869975 
-0.409463 -0.219371 0.290661 
0.205372 0.162722 -0.518042 
0.365942 0.115488 0.001192 
0.105916 2.080775 0.199933 
0.036782 -1.780570 -0.159396 
-0.257690 0.123736 0.223653 
0.011810 -0.213793 -0.228785 
0.194088 -0.485892 0.506576 
0.768622 0.442225 0.067263 
0.002810 -0.033208 0.572317 
-0.459826 -0.023025 0.835279 
-0.507685 -0.341313 -0.085921 
-0.951932 -0.530619 0.614663 
-0.258007 -0.594132 0.265011 
-0.659498 0.722915 0.196230 
0.492554 -0.465473 -0.063815 
1.020632 -0.377029 0.364405 
-0.577711 0.199017 -0.451530 
0.732734 0.245404 0.368368 
-0.198033 0.079158 0.153281 
-0.167893 -0.438375 -0.822908 
-0.211047 0.306073 -1.170229 
0.030403 -0.132845 -0.863406 
0.807158 0.494657 0.452256 
0.919002 -0.083677 -0.124283 
0.673083 -0.289700 -0.427880 
-0.954905 0.199702 0.253524 
-0.004923 0.761780 0.776625 
0.056014 0.031720 -0.154016 
0.102721 -0.040813 0.016689 
-0.046521 -0.879914 -0.157511 
0.444471 -0.920284 0.704155 
0.633166 0.770588 0.276071 
-0.051804 0.239954 -0.136208 
0.813807 0.595603 0.528715 
-0.314669 0.301220 0.140032 
-0.569712 0.835519 -0.325895 
-0.135470 0.044361 0.224973 
0.210893 -0.195375 -0.082840 
-0.504136 -0.718743 0.580710 
-0.275006 -0.645171 -0.667198 
-0.228881 -0.680544 0.509826 
-0.677604 0.254815 0.169482 
0.033164 -0.743429 -0.131888 
0.189747 0.862231 -0.411069 
-0.147948 -0.348255 -0.707604 
0.521088 0.864964 -0.055228 
0.067143 -0.798456 -0.447307 
-0.640590 -0.549252 -0.486915 
0.230513 -0.719545 0.396552 
-0.608092 -0.028836 0.261804 
0.869311 0.004882 -0.129474 
-0.011865 0.245316 0.611792 
-1.413704 0.296031 0.494719 
-0.008678 -0.001541 0.388699 
0.407153 0.356255 -0.170492 
-0.257873 0.584071 -0.534331 
-0.346662 -0.860483 -0.130518 
0.831033 -1.434661 -0.803928 
-0.699734 -0.035147 0.519214 
0.168499 0.320066 -0.337627 
0.145832 -0.822999 -0.775418 
-0.052382 1.223166 0.829797 
0.744057 -0.664387 -0.662808 
-0.484694 -0.040453 -0.346844 
0.502669 -0.478979 -0.609168 
0.251806 -0.062194 0.151557 
-1.769945 -0.351301 0.199139 
0.314648 -0.095336 0.790580 
0.761520 0.294196 0.308324 
-0.502735 0.467749 -0.997934 
1.021552 0.221976 0.057630 
0.602781 0.622059 0.063321 
-0.481441 -0.597522 0.148970 
0.041420 0.294582 0.299342 
-0.859547 1.650519 0.146815 
-0.005373 0.137339 -0.191264 
1.054878 -0.967169 -0.148661 
0.478216 0.268177 0.042965 
-0.145274 0.034643 -0.193193 
0.629044 0.265806 0.014067 
0.138125 -0.823043 -0.064353 
0.027116 -0.517504 -0.112759 

-0.08866401249999999 -0.08221868125000001 -0.086311325 4.3818750000000005e-05 -0.0020734 0.00241630625 

2