111 1 Fe 26 -776.75102006 47.06011973999989 47.06011973999989
1.00000000 
    11.3365200000000002    0.0000000000000000    0.0000000000000000
     0.0000000000000000   11.3365200000000002    0.0000000000000000
     0.0000000000000000    0.0000000000000000   11.3365200000000002
100
Cartesian 
0.17003 9.77902 2.88511 
5.57180 9.31109 6.38617 
3.72252 7.51914 7.67255 
10.47832 0.13461 11.31146 
10.62662 4.80153 2.37249 
11.32545 0.41884 8.38485 
6.85713 9.76839 1.92496 
8.36613 7.91363 10.08700 
5.17461 0.27384 1.38421 
3.01208 0.72214 9.38518 
1.63124 8.82443 1.02996 
3.27728 2.98512 4.94902 
5.73067 2.88858 0.70799 
4.59941 6.94129 2.59026 
6.68428 5.46859 1.88042 
7.42879 2.77317 10.11112 
3.52058 1.83822 0.33585 
3.32397 10.55740 11.26265 
4.54451 0.10330 7.54916 
6.08374 7.47351 9.09070 
1.55159 6.69176 11.06903 
7.89456 1.16954 0.57797 
11.13051 7.28269 2.28500 
6.98886 0.68216 2.98799 
8.85785 8.49937 2.44612 
4.19134 4.13605 2.44350 
5.37608 5.40114 4.28374 
1.72926 2.44443 8.18404 
11.26929 4.40535 11.12586 
1.73647 5.65219 2.09280 
3.64846 1.70914 2.93175 
6.38711 7.70948 0.72091 
9.14299 1.82433 6.95113 
8.22239 3.76078 3.32889 
9.90443 10.47300 6.43623 
1.11978 3.52877 3.59344 
3.24645 9.69721 5.91224 
4.05290 4.85354 0.40566 
8.14453 10.19340 10.76147 
3.70372 5.31899 6.60096 
5.98416 5.12105 8.16814 
10.97863 8.12508 7.16634 
0.09358 5.98089 4.42353 
8.70915 6.21972 3.23824 
10.12917 9.71418 8.99921 
9.99446 5.70650 6.43797 
10.04076 0.90075 4.75446 
2.75911 5.58516 4.26681 
5.68967 2.90605 3.82872 
8.43825 0.59358 9.17102 
10.57367 8.98455 0.20740 
10.41627 3.53038 5.15975 
1.75366 7.95609 8.93568 
8.88583 6.58486 0.69229 
7.32933 11.06321 6.50735 
2.14097 8.06091 3.50239 
9.39901 11.02297 2.01463 
1.01504 1.55218 10.50686 
0.45093 1.57341 6.21745 
7.70490 5.20601 5.43432 
9.31610 5.03175 9.68557 
1.58437 3.40500 1.24336 
5.94464 6.92873 6.23869 
10.50517 2.40710 2.19487 
6.66292 5.17474 10.94747 
7.54423 2.07122 5.15728 
6.66518 1.70639 7.64764 
10.52039 8.46833 4.60197 
10.53557 3.82687 8.23294 
3.82237 9.66612 9.01519 
8.01010 3.90303 7.58807 
3.83211 5.53729 9.44925 
10.77113 7.07740 9.42172 
5.63441 3.52778 6.20926 
4.82348 3.19060 9.71862 
2.45198 3.71453 10.29453 
5.06804 0.91705 5.18956 
5.32614 10.01299 3.91423 
1.14408 10.28118 10.31622 
8.54684 3.95287 0.76154 
9.87051 2.40196 10.49186 
1.71813 7.17356 6.10774 
5.68282 9.92934 11.11146 
6.41396 7.68894 3.68652 
4.18452 9.16017 1.76003 
1.12908 4.45245 6.19156 
8.49801 7.03959 7.84131 
8.28085 7.95581 5.76485 
4.01948 7.75563 10.75836 
1.43694 5.70495 8.35224 
6.56413 10.19091 8.79470 
0.60713 10.43166 5.27807 
3.95062 7.50447 5.06198 
1.51095 0.15281 1.30016 
1.73546 10.04565 7.57679 
8.30274 10.27911 4.31458 
5.55029 0.74996 10.26919 
2.84394 10.46552 3.34980 
0.90092 1.02429 3.48403 
2.59048 0.56141 5.58183 

0.067089 0.560069 -0.665198 
0.239621 0.014979 0.283063 
0.674281 0.168275 0.093865 
-0.476950 -0.237716 -0.765759 
-0.032854 -0.175751 -0.382516 
-0.232859 0.495682 0.619610 
0.340442 0.651710 0.357800 
-0.034641 -0.117974 0.351423 
-0.277928 0.200808 0.702569 
-0.360810 0.338170 -0.090344 
0.631083 -0.177924 0.231105 
0.046413 0.716256 0.401178 
0.593363 -0.017340 0.840278 
-1.504944 -0.963125 -0.935371 
-0.488735 -0.497089 0.923826 
-0.157994 0.559708 -0.978786 
-0.124698 0.627092 -0.106886 
0.266932 0.241477 0.253749 
0.274192 0.021559 -0.433402 
-0.558331 0.351880 -0.024439 
0.006969 -0.771522 -0.059939 
0.100596 -0.175803 0.060963 
-0.242909 0.295931 -0.441286 
0.206528 0.561193 0.586984 
0.363431 0.230179 -0.218765 
-1.061331 -0.176605 1.305501 
-0.245168 -0.641392 0.687266 
-0.102625 0.573431 -0.462782 
-0.338059 0.419653 -0.116591 
0.330849 0.509094 -0.274397 
-0.515904 -0.622264 -0.156796 
0.135256 -0.436764 -0.188791 
0.717208 -0.481470 0.392177 
0.176138 -0.277015 -0.243035 
-0.356106 0.029446 0.687639 
0.372537 0.420994 0.707841 
0.402974 -0.494867 -0.769123 
0.135914 0.870812 -0.850244 
0.413064 0.215023 1.173095 
-0.179583 -0.337254 0.147496 
-0.162219 0.295747 0.229650 
-0.218245 -0.045820 -0.169640 
0.768867 0.075857 -0.384077 
0.242857 -0.160884 0.446503 
-0.420852 -0.328492 0.447999 
0.252165 0.259001 0.426924 
-0.874563 -0.257613 -0.943141 
-0.209015 -0.744309 0.194187 
0.869157 0.110377 -0.652483 
0.434793 0.013871 -0.129272 
-0.206192 -0.244089 0.190248 
-1.074560 -0.023079 -0.255253 
-0.287351 0.421035 0.683341 
0.438399 -0.463318 0.182495 
0.447977 0.300611 -0.445803 
-0.674796 -0.041542 0.125378 
-0.326392 -0.013891 0.654029 
-0.025296 0.543062 0.296479 
-0.100748 0.596313 -0.080214 
-0.036619 0.025705 -0.078449 
-1.399476 0.639929 0.820619 
0.414257 -0.819430 0.110556 
0.709121 -0.839535 0.879466 
-0.419923 -0.543039 -0.506641 
-0.296051 0.327943 -1.317693 
0.240829 0.075432 0.412693 
-0.655514 0.147055 0.686094 
-0.265043 -0.474585 0.257518 
1.308051 -0.909143 -0.765592 
0.656091 -0.283313 -0.134184 
0.408304 -0.115011 -0.137036 
0.070514 0.718632 -0.673359 
-0.240777 -0.065032 0.253219 
0.018738 0.208676 -0.049995 
0.246150 -0.104025 -0.300328 
-0.904080 -0.005392 -0.492771 
0.233759 -0.158617 0.193947 
-0.059374 0.024787 0.212757 
-0.300781 -0.446150 -1.017179 
0.286144 -0.169558 0.262391 
0.125827 0.190361 -0.421557 
-0.302516 -0.111933 0.144450 
0.100545 -1.519158 -0.724651 
1.189555 0.643568 0.520788 
0.285924 -0.294036 -0.080413 
0.325891 -0.376552 -0.158360 
-0.313650 -0.754645 0.511323 
-0.151619 0.487415 -0.926841 
-0.270556 0.200511 0.186961 
-0.069538 -0.510803 -0.138119 
0.136369 -0.198828 -0.505206 
0.780489 -0.363984 -0.050245 
0.907945 0.620337 -0.465631 
-0.118247 0.219364 0.235022 
-0.741574 0.528442 0.517556 
-0.166959 -0.595013 -0.306142 
0.135669 0.679587 -0.792419 
-0.477504 0.456851 0.160356 
0.206763 0.053915 0.367456 
0.326641 0.644740 -0.150757 

-0.09395351874999999 -0.085425875 -0.0775992375 -0.0026744812499999997 0.0011917562499999998 -0.00777569375 

2