111 1 Fe 26 -775.50291696 48.30822283999987 48.30822283999987
1.00000000 
    11.3365200000000002    0.0000000000000000    0.0000000000000000
     0.0000000000000000   11.3365200000000002    0.0000000000000000
     0.0000000000000000    0.0000000000000000   11.3365200000000002
100
Cartesian 
0.25650 9.98843 2.89750 
5.56844 9.17031 6.32778 
3.60274 7.34017 7.62414 
10.42724 0.08047 11.27443 
10.70012 4.74709 2.43554 
11.20465 0.67624 8.56843 
7.16632 9.93319 2.06493 
8.37162 7.85802 10.32335 
5.02928 0.36796 1.12006 
2.81632 0.63359 9.22574 
1.74099 8.78596 1.16019 
3.31512 3.01330 4.92716 
5.99779 3.13917 0.95370 
4.42126 6.88588 2.58623 
6.64498 5.55311 2.03125 
7.66111 2.87253 9.91821 
3.62938 2.14503 0.28286 
3.36496 10.34661 11.29968 
4.69788 0.23394 7.55366 
6.01578 7.48037 9.29121 
1.56255 6.76436 10.95376 
8.00147 0.90918 0.54871 
11.15588 7.50516 2.11642 
6.91640 0.73824 3.02320 
9.09762 8.46903 2.26919 
3.82929 4.07784 2.49784 
5.18154 5.35596 4.18441 
1.63560 2.77675 8.10420 
11.15891 4.28357 0.12914 
1.65698 5.53610 2.01713 
3.63296 1.49642 2.77314 
6.20194 7.83705 0.77062 
9.40454 1.65076 7.04653 
8.16652 3.73121 3.32494 
9.90124 10.45364 6.80870 
1.24438 3.47766 3.96613 
3.14952 9.61649 5.80456 
3.92807 4.90509 0.22285 
8.17118 10.19914 10.86811 
3.45957 4.97727 6.61731 
5.96563 5.23194 8.35770 
10.95229 8.09509 7.11996 
0.24742 6.10242 4.23545 
8.78553 6.22211 3.40024 
10.34016 9.74596 9.31123 
9.96898 5.69072 6.52244 
9.78839 0.68189 4.48097 
2.73549 5.43167 4.33480 
5.77982 2.64793 3.76911 
8.61318 0.62912 9.25494 
10.61222 8.75063 0.22752 
10.06008 3.38777 4.92208 
1.50897 8.24506 9.08350 
8.77221 6.35659 0.80852 
7.45346 11.01890 6.45067 
2.25257 8.15766 3.52531 
9.38459 10.93479 2.08180 
1.10866 1.37431 10.49326 
0.26789 1.72261 6.08969 
7.63055 5.33773 5.38320 
9.09065 4.89033 9.80343 
1.62910 3.21844 1.37186 
6.05128 6.83098 6.28890 
10.28002 2.35127 2.26220 
6.57022 5.24301 10.84891 
7.44669 1.89551 5.34867 
6.62937 1.93430 7.67775 
10.40202 8.64641 4.62500 
10.87513 3.76684 8.25723 
3.92832 9.68792 8.68784 
8.05005 3.86688 7.56406 
3.63671 5.73612 9.47098 
10.55566 7.06207 9.37942 
5.89617 3.73445 6.27071 
4.78491 3.19967 9.43524 
2.14707 3.69650 10.18653 
5.17090 0.94769 5.49182 
5.27141 9.78643 3.75220 
1.09745 10.11643 9.98708 
8.66773 3.78067 0.74602 
10.15859 2.34638 10.39201 
1.56846 7.27417 5.81746 
5.83997 9.62233 10.75094 
6.82763 7.78815 3.80207 
4.14178 9.04704 1.75775 
1.00328 4.72924 6.32331 
8.57069 6.79008 7.97114 
8.33402 7.99324 5.64182 
3.96012 7.98544 10.86537 
1.47261 5.92098 8.36225 
6.57012 10.29308 8.65817 
0.70104 10.45654 5.29878 
4.04367 7.64988 5.05817 
1.55290 0.25720 1.21979 
1.57963 10.19189 7.63495 
8.42187 10.10348 4.29460 
5.63272 0.98718 10.12783 
2.92657 10.47757 3.37416 
0.90472 1.03391 3.57293 
2.70653 0.66893 5.49625 

-0.048024 -0.106904 -0.635879 
0.265721 0.518901 0.271424 
0.493364 0.467192 -0.216508 
0.188494 -0.341605 -0.412564 
-0.485650 -0.290563 0.298915 
-0.007343 0.037745 -0.226315 
-1.099713 -0.319516 -0.950028 
-0.323122 -0.183065 0.052118 
1.026398 -0.594965 0.657902 
0.769106 0.170092 -0.280228 
-0.085294 0.183000 -0.464548 
1.124770 0.217753 0.419891 
-0.102926 -0.483551 -0.078345 
-0.437059 -0.636490 -0.281636 
-0.218246 -0.457234 0.303866 
-0.809400 0.047445 0.234951 
-0.115625 -0.058733 -0.687348 
-0.317749 1.161859 -0.963419 
-0.167148 -0.040140 0.432659 
-0.343706 0.482129 -0.211053 
-0.019707 -0.671329 0.343242 
-0.461176 1.563862 0.118390 
0.777558 -1.510220 0.767629 
0.488763 -0.034531 0.159427 
-1.020628 0.158448 0.181035 
0.052894 -0.333557 0.193096 
0.552322 -0.472229 0.989648 
0.492608 -0.492854 -0.793604 
0.054010 0.694968 -0.508055 
0.553080 0.681656 -0.015244 
-0.524578 0.410119 0.667048 
0.948014 -1.162623 0.446811 
-0.640747 0.205965 0.036934 
-0.075096 -0.268132 -0.317396 
0.226834 0.303881 -0.365848 
-0.764216 0.449514 -0.777851 
0.145848 0.672284 0.239232 
0.357303 -0.188915 0.941487 
0.416497 -0.374277 0.514338 
0.606923 0.592817 0.569471 
0.144038 -0.331008 -0.307007 
-0.325726 0.209088 0.002771 
-0.309150 -0.102738 0.074705 
0.621020 0.119643 -0.234782 
-1.161710 -0.574593 -1.002485 
0.560405 -0.088734 -0.483112 
0.242401 0.459984 0.270661 
-0.363601 0.882448 -0.081655 
-0.732430 1.276236 -0.395938 
-0.156179 -0.260967 -0.293591 
0.066949 0.524480 -0.565064 
-0.021382 0.064416 0.186952 
0.596352 -2.045142 -0.826127 
0.555927 -0.324071 0.074729 
-0.169362 0.435721 -0.142769 
-0.967480 -0.546278 -0.061601 
0.410638 0.393693 0.152742 
-0.242611 1.256469 0.764506 
0.678175 0.003984 0.083919 
0.364453 -0.566180 -0.127778 
-0.219566 0.592119 -0.062685 
-0.246115 -0.795972 0.299278 
-0.166220 -0.306858 0.722917 
0.056850 -0.675412 -0.241519 
0.125216 0.144533 -0.177065 
1.142859 0.584432 -0.237176 
-0.188563 -0.856729 0.838862 
0.698008 -0.464166 -0.243568 
-0.436468 0.038552 -0.048018 
-0.137865 -0.695966 0.531127 
0.773058 0.413346 -0.337415 
0.390955 0.219461 -0.699806 
0.275672 -0.500023 0.425884 
-0.809964 0.068705 -0.566949 
-0.107981 0.208659 0.313503 
0.068706 0.619204 0.351006 
0.379984 0.052383 -1.367407 
0.274677 0.355675 0.707823 
0.676000 2.515482 2.427122 
-0.272145 0.012843 0.134745 
-0.658750 0.095889 -0.279963 
0.405504 0.123770 0.971766 
-0.630196 0.600775 0.470448 
-0.754682 -0.291480 -0.289464 
0.857302 0.463735 -0.186194 
-0.020421 -0.785139 -0.718749 
-1.131934 0.072233 0.268079 
-0.064758 -0.136882 0.903491 
-0.671758 -0.747167 -0.708363 
-0.739472 -0.601407 -0.226600 
0.467506 -0.019152 -0.514513 
0.090402 -0.241733 -0.018471 
0.881691 -1.308802 -0.505013 
0.353713 -0.212839 0.633101 
-0.194610 0.392775 -0.331706 
-0.814691 -0.300160 0.099854 
0.289451 -0.310778 -0.147155 
-0.817986 0.696955 -0.052072 
-0.013555 0.222229 -0.119788 
-0.374026 -0.027852 0.237822 

-0.08982924375 -0.08177237500000001 -0.07725886875 -0.00272816875 0.00129876875 -0.0049950375000000005 

2