111 1 Fe 26 -776.34935085 47.461788949999914 47.461788949999914
1.00000000 
    11.3365200000000002    0.0000000000000000    0.0000000000000000
     0.0000000000000000   11.3365200000000002    0.0000000000000000
     0.0000000000000000    0.0000000000000000   11.3365200000000002
100
Cartesian 
0.18702 9.82014 2.93479 
5.56122 9.24907 6.35413 
3.65806 7.45161 7.65283 
10.46888 0.13819 0.00276 
10.66629 4.79263 2.39446 
11.30163 0.47314 8.43262 
6.97046 9.79885 1.98672 
8.37430 7.90599 10.14964 
5.09805 0.32989 1.25603 
2.93736 0.68833 9.34806 
1.64942 8.81115 1.07087 
3.26427 2.96787 4.92206 
5.79376 2.97917 0.77065 
4.59190 6.95052 2.62057 
6.68913 5.51377 1.89266 
7.52464 2.78232 10.07626 
3.57471 1.90312 0.35038 
3.33988 10.46405 11.30039 
4.57981 0.13193 7.56792 
6.08603 7.45029 9.15679 
1.55479 6.74790 11.02877 
7.93804 1.06671 0.56887 
11.12768 7.37859 2.22933 
6.95409 0.68325 2.98048 
8.93866 8.47705 2.39367 
4.10755 4.14308 2.39621 
5.31070 5.43112 4.20250 
1.70694 2.53546 8.18967 
11.25639 4.33355 11.24796 
1.69135 5.56918 2.07128 
3.67012 1.65526 2.86865 
6.30596 7.79206 0.73406 
9.21028 1.78303 6.96511 
8.19750 3.76641 3.33806 
9.90917 10.45532 6.53753 
1.15873 3.48331 3.70687 
3.20524 9.66045 5.89836 
4.00289 4.84674 0.35475 
8.11627 10.19035 10.73896 
3.62216 5.20582 6.58679 
5.98384 5.14981 8.22268 
10.98374 8.11314 7.16273 
0.12504 6.01446 4.37328 
8.70989 6.22364 3.27986 
10.22010 9.74448 9.09715 
9.95718 5.70399 6.46947 
9.99299 0.84413 4.69384 
2.76999 5.54530 4.29052 
5.72365 2.78835 3.85110 
8.47432 0.60651 9.21169 
10.59203 8.90937 0.21702 
10.34201 3.48370 5.09355 
1.67311 8.05197 8.96488 
8.82649 6.53740 0.72113 
7.35717 11.03083 6.50435 
2.22646 8.10646 3.51837 
9.40071 10.99497 2.00244 
1.05909 1.44905 10.47026 
0.38139 1.59981 6.17352 
7.68444 5.25352 5.41880 
9.30317 4.95396 9.68683 
1.57598 3.41473 1.26599 
5.95679 6.94245 6.21634 
10.45042 2.41760 2.23337 
6.64165 5.18401 10.96791 
7.46735 2.01595 5.20497 
6.67567 1.80095 7.60805 
10.48792 8.55383 4.59697 
10.59160 3.84599 8.27501 
3.83884 9.70934 8.90272 
7.98780 3.88305 7.58917 
3.76352 5.56522 9.50414 
10.71256 7.08847 9.39296 
5.73695 3.57251 6.25220 
4.80605 3.19423 9.62904 
2.38438 3.70185 10.27515 
5.08678 0.93742 5.29505 
5.30077 9.93701 3.83903 
1.12144 10.21519 10.19976 
8.58061 3.90486 0.74200 
9.96429 2.38221 10.48185 
1.68609 7.20833 5.98915 
5.76057 9.85863 10.98944 
6.52302 7.70519 3.70905 
4.13344 9.13362 1.78348 
1.08675 4.56424 6.25242 
8.55644 6.97646 7.85114 
8.30371 7.95225 5.74295 
4.02535 7.82960 10.79730 
1.46243 5.80259 8.36793 
6.55316 10.22560 8.79977 
0.60486 10.44998 5.27670 
3.90857 7.57625 5.08778 
1.51832 0.18613 1.25482 
1.71939 10.05857 7.58352 
8.35433 10.25055 4.31908 
5.56439 0.80792 10.25793 
2.91284 10.41911 3.34413 
0.89300 1.02479 3.50611 
2.62831 0.57769 5.55461 

0.234382 0.588603 -1.047242 
0.209401 0.381441 0.327002 
0.672548 0.299444 0.169505 
-0.214422 -0.411941 -0.897850 
-0.318418 -0.137789 -0.175576 
-0.250950 0.563322 0.303316 
-0.343825 0.604237 -0.296160 
-0.095289 -0.192367 0.197644 
0.543209 -0.520167 1.145325 
0.131190 0.206007 -0.118775 
0.433089 -0.013214 0.064945 
0.347410 0.645992 0.438031 
0.498739 -0.286461 0.319192 
-1.190746 -0.614910 -0.812354 
-0.401260 -0.449827 0.871052 
-0.518462 0.516553 -0.670867 
-0.471872 0.647702 -0.580145 
0.043068 0.568520 -0.416518 
0.288549 0.212721 -0.542396 
-0.530874 0.534789 -0.129543 
0.006057 -0.778968 0.085246 
-0.169631 0.294965 -0.003843 
0.051215 -0.370763 -0.073384 
0.259763 0.434596 0.451770 
0.035145 0.298694 -0.077632 
-0.656616 -0.562172 1.697648 
0.032790 -1.026345 1.101401 
-0.175752 0.314808 -0.598203 
-0.498860 0.745504 -0.426858 
0.433074 1.061671 -0.058944 
-0.572170 -0.370016 0.208622 
0.453631 -0.870457 -0.101025 
0.435443 -0.315880 0.362732 
0.213068 -0.308142 -0.211790 
-0.223051 0.222435 0.361855 
0.153145 0.654396 0.157686 
0.371669 0.036320 -0.590842 
0.226622 0.714796 -0.457565 
0.811427 0.172017 1.307335 
0.082872 0.139851 0.357422 
-0.177661 0.186718 0.111911 
-0.280610 0.029010 -0.249910 
0.472195 0.089815 -0.189710 
0.441996 -0.122651 0.248589 
-0.502450 -0.435876 0.105267 
0.589950 0.038776 0.016533 
-0.787070 -0.295348 -0.637092 
-0.367421 -0.365840 -0.040395 
0.066157 0.772188 -0.927015 
0.428048 -0.000171 -0.332907 
-0.189719 0.007744 0.054306 
-0.839535 0.089789 -0.142130 
0.035153 0.217327 0.572874 
0.541772 -0.464318 0.162471 
0.303390 0.385641 -0.359452 
-1.109643 -0.275444 -0.184276 
-0.262170 -0.019127 0.795881 
-0.282979 0.979671 0.596050 
0.239385 0.486070 0.106259 
-0.102175 -0.096854 0.005024 
-1.468490 0.878942 1.003966 
0.590520 -1.464234 0.334871 
0.555230 -1.027201 0.851011 
-0.350792 -0.582888 -0.450760 
-0.209177 0.251517 -1.317188 
0.909115 0.007734 0.285865 
-0.521666 -0.400143 0.996508 
-0.201430 -0.763357 0.364816 
1.310719 -1.022369 -0.980588 
0.470906 -0.732521 0.224272 
0.679375 0.090366 -0.165427 
0.198911 0.756404 -1.034727 
-0.210976 -0.266977 0.330198 
-0.422294 0.355861 -0.452558 
0.193237 -0.068658 0.056054 
-0.668450 0.045134 -0.433434 
0.237702 -0.293827 -0.095496 
0.130014 0.156809 0.544576 
0.043923 -0.130060 -0.151072 
0.152064 -0.108752 0.350099 
-0.079444 0.104295 -0.434353 
-0.401151 -0.137795 0.620745 
-0.586755 -0.771157 0.238612 
0.634021 0.452262 0.370741 
0.785530 -0.260352 -0.558907 
0.157251 -0.601815 -0.408080 
-0.667545 -0.398749 0.666092 
-0.177959 0.414821 -0.599809 
-0.447428 0.023224 -0.007806 
-0.220879 -0.757754 -0.275704 
0.219450 -0.140814 -0.993126 
0.774375 -0.258054 0.163999 
1.545061 -0.300681 -0.595603 
0.038225 0.008024 0.433962 
-0.797948 0.700741 0.392120 
-0.268029 -0.560510 -0.288587 
0.185866 0.430025 -0.783218 
-0.932800 1.052651 0.317878 
0.235261 0.019587 0.149229 
0.034492 0.462859 -0.021734 

-0.09262157500000001 -0.0831940375 -0.07616233124999999 -0.00352399375 0.0005061125 -0.0077713750000000005 

2