111 1 Fe 26 -775.88983380 47.921305999999845 47.921305999999845
1.00000000 
    11.3365200000000002    0.0000000000000000    0.0000000000000000
     0.0000000000000000   11.3365200000000002    0.0000000000000000
     0.0000000000000000    0.0000000000000000   11.3365200000000002
100
Cartesian 
0.27860 10.04082 2.85467 
5.57990 9.16873 6.33174 
3.60767 7.32387 7.61240 
10.41944 0.04765 11.23187 
10.69011 4.72438 2.45540 
11.17079 0.74356 8.60139 
7.18712 9.96817 2.05468 
8.36010 7.83641 10.37702 
5.05079 0.35108 1.11410 
2.81086 0.62286 9.17726 
1.76846 8.78491 1.17249 
3.36838 3.03932 4.94611 
6.05798 3.16681 1.00624 
4.34952 6.84555 2.56080 
6.62204 5.54725 2.08709 
7.67059 2.90635 9.87296 
3.63287 2.22348 0.23337 
3.36051 10.35233 11.26276 
4.73154 0.26781 7.55481 
5.97999 7.51034 9.32272 
1.56434 6.74156 10.94294 
8.00283 0.91364 0.54558 
11.18949 7.49000 2.10737 
6.92189 0.75738 3.04463 
9.11203 8.47550 2.23890 
3.74371 4.04183 2.55065 
5.16243 5.30744 4.22263 
1.62397 2.83583 8.04943 
11.12451 4.29973 0.17178 
1.66841 5.56183 2.00209 
3.60031 1.45957 2.77008 
6.20566 7.80401 0.79480 
9.44644 1.61492 7.07570 
8.15869 3.70923 3.31002 
9.90403 10.46572 6.87932 
1.24741 3.49857 4.01782 
3.13868 9.63037 5.78002 
3.92067 4.92108 0.21310 
8.21124 10.19431 10.93605 
3.43187 4.93170 6.64775 
5.96274 5.24816 8.38938 
10.93086 8.09647 7.10385 
0.27790 6.12616 4.19668 
8.83081 6.22417 3.43005 
10.33646 9.72523 9.34452 
9.99865 5.68132 6.52034 
9.72752 0.64327 4.42137 
2.70957 5.42119 4.34313 
5.77076 2.65482 3.72108 
8.65497 0.62797 9.25417 
10.61761 8.72101 0.21373 
9.96876 3.36332 4.87556 
1.48083 8.24376 9.10066 
8.77908 6.28932 0.83686 
7.47880 11.03342 6.42795 
2.21668 8.15149 3.52112 
9.38927 10.92755 2.11938 
1.10886 1.40330 10.53298 
0.25809 1.76329 6.07056 
7.62317 5.34473 5.37063 
9.00911 4.89682 9.84366 
1.64605 3.11740 1.41590 
6.07991 6.77637 6.33928 
10.22885 2.30654 2.25925 
6.55135 5.26733 10.79590 
7.48906 1.87501 5.38702 
6.60507 1.93830 7.73788 
10.39384 8.65097 4.63058 
10.95881 3.73445 8.24161 
3.95374 9.64931 8.64605 
8.10063 3.87786 7.54601 
3.61319 5.80160 9.42531 
10.51582 7.03523 9.39176 
5.91160 3.79062 6.25107 
4.77729 3.20643 9.38983 
2.07459 3.71367 10.16667 
5.20860 0.94793 5.50773 
5.27455 9.75458 3.75461 
1.11250 10.15965 9.99877 
8.68539 3.74461 0.75576 
10.19530 2.33817 10.35201 
1.54042 7.29458 5.80408 
5.83328 9.56727 10.70172 
6.89691 7.80725 3.82489 
4.18022 9.03107 1.73617 
0.97897 4.74726 6.31793 
8.53193 6.73773 8.02297 
8.33915 8.00590 5.63266 
3.91552 8.00903 10.86352 
1.45127 5.92941 8.35027 
6.59164 10.31181 8.58614 
0.74056 10.44969 5.30848 
4.13109 7.62211 5.02784 
1.57448 0.27066 1.23275 
1.52580 10.25098 7.64317 
8.41577 10.04588 4.28676 
5.66402 1.03369 10.07703 
2.89338 10.53206 3.38670 
0.91075 1.04281 3.58992 
2.71682 0.69798 5.48673 

-0.129276 -0.340624 -0.376423 
0.266103 0.385824 0.217726 
0.449903 0.599535 -0.462397 
0.266325 -0.100191 -0.049960 
-0.363384 -0.355607 0.357031 
0.361288 -0.165771 -0.200092 
-1.246182 -0.469664 -0.933723 
-0.340861 -0.175965 0.035990 
0.798990 -0.330156 0.455131 
0.538876 0.324296 -0.048355 
-0.138442 0.181457 -0.540825 
0.999609 0.077598 0.329675 
-0.181783 -0.444336 -0.135434 
-0.327046 -0.730250 -0.239778 
-0.160447 -0.465385 0.208344 
-0.796016 -0.187195 0.463077 
0.078295 -0.384745 -0.437885 
-0.136983 1.235624 -0.786320 
-0.356953 -0.274382 0.627690 
-0.254877 0.254231 -0.280014 
-0.049104 -0.630828 0.386111 
-0.381590 1.630970 0.158881 
0.603085 -1.359209 0.714227 
0.532726 -0.140255 0.093889 
-0.948464 0.053618 0.086033 
0.266113 -0.141220 -0.197392 
0.520229 -0.211081 0.707867 
1.215590 -0.809795 -0.752406 
0.277454 0.557084 -0.515718 
0.479216 0.408096 -0.035131 
-0.367705 0.593106 0.552478 
0.882213 -0.921693 0.384202 
-0.894427 0.381296 -0.118660 
-0.261009 -0.159858 -0.359866 
0.293909 0.230930 -0.497140 
-0.784525 0.157210 -0.825546 
0.307213 0.336469 0.307529 
0.252550 -0.192497 0.857388 
0.105641 -0.569673 0.224797 
0.688807 0.652680 0.515811 
0.193140 -0.471868 -0.496132 
-0.321676 0.235748 0.141390 
-0.455731 -0.163844 0.153093 
0.582416 0.147460 -0.294139 
-0.987758 -0.556121 -1.142790 
0.261657 0.112206 -0.347129 
0.490182 0.695201 0.551996 
-0.168274 1.153377 0.024635 
-0.653459 1.222429 -0.070515 
-0.509932 -0.337719 -0.193886 
0.167901 0.488080 -0.499765 
0.299199 0.018321 0.380107 
0.497411 -1.688307 -0.825291 
0.502361 -0.246340 0.106844 
-0.224829 0.328581 -0.137620 
-0.699586 -0.428783 0.102828 
0.470175 0.520875 -0.222912 
-0.008108 1.032755 0.467342 
0.651394 -0.074272 -0.014156 
0.544268 -0.656255 -0.288578 
0.027268 0.670833 -0.165248 
-0.485741 -0.413810 0.191474 
-0.342437 0.066595 0.648003 
0.166895 -0.666200 -0.202601 
0.164242 0.090906 0.256623 
0.858633 0.887465 -0.400519 
0.006865 -0.562534 0.297243 
0.904432 -0.395677 -0.383121 
-1.224481 0.362259 0.115999 
-0.198116 -0.367594 0.447013 
0.598439 0.298986 -0.389179 
0.442506 -0.109094 -0.183411 
0.375452 -0.439138 0.378654 
-0.754145 -0.306626 -0.293062 
-0.177905 0.309331 0.326352 
0.220173 0.713014 0.453929 
0.353909 0.189629 -1.532764 
0.150540 0.430766 0.651576 
0.628995 2.174158 2.176041 
-0.298712 -0.016187 -0.030891 
-0.889984 0.259119 -0.095105 
0.614863 0.182498 0.959317 
-0.382742 0.774283 0.523394 
-0.965715 -0.453404 -0.540181 
0.717890 0.657408 -0.025485 
0.051354 -0.750787 -0.724871 
-0.968618 -0.007020 -0.030515 
0.011599 -0.352994 1.360350 
-0.612676 -0.864270 -0.724258 
-0.792547 -0.556089 -0.194643 
0.434159 -0.087694 -0.040648 
-0.174644 -0.264621 -0.215188 
0.301942 -0.972065 -0.381955 
0.381790 -0.220547 0.630638 
-0.188510 0.172856 -0.294559 
-0.928426 -0.117727 0.150632 
0.246036 -0.508832 0.091131 
-0.530233 0.115648 -0.201631 
-0.109988 0.298397 -0.159752 
-0.328146 -0.052482 0.265028 

-0.0901314625 -0.08337985625 -0.07878949375000001 -0.0023254875 0.0011871625 -0.00340459375 

2