111 1 Fe 26 -776.88590982 46.92522997999981 46.92522997999981
1.00000000 
    11.3365200000000002    0.0000000000000000    0.0000000000000000
     0.0000000000000000   11.3365200000000002    0.0000000000000000
     0.0000000000000000    0.0000000000000000   11.3365200000000002
100
Cartesian 
0.34259 10.15548 2.63344 
5.67987 9.20316 6.38035 
3.70872 7.39784 7.40693 
10.43791 11.28917 11.10654 
10.59343 4.54255 2.61255 
11.18197 0.96775 8.69550 
7.01048 10.01420 1.85701 
8.25088 7.70691 10.61948 
5.27529 0.24158 1.16435 
2.84839 0.67450 8.99042 
1.87546 8.81502 1.11363 
3.72860 3.15201 5.09713 
6.27342 3.20023 1.19203 
3.98603 6.54233 2.39153 
6.49792 5.43423 2.36367 
7.56454 2.98762 9.78899 
3.66527 2.46826 11.31004 
3.38889 10.61542 10.99428 
4.79184 0.33422 7.63551 
5.78507 7.61027 9.36983 
1.55097 6.51622 10.96349 
7.96241 1.20418 0.54987 
0.02619 7.24200 2.12964 
7.04864 0.81826 3.15494 
9.03369 8.49508 2.08564 
3.45123 3.89616 2.69121 
5.15177 5.09732 4.45613 
1.89833 2.92396 7.68075 
11.04122 4.47289 0.25358 
1.79495 5.69246 1.93329 
3.44417 1.45586 2.84857 
6.35885 7.53816 0.94692 
9.43662 1.58000 7.15776 
8.04332 3.60114 3.15653 
9.98046 10.55034 7.06947 
1.15066 3.57316 4.08281 
3.18089 9.70425 5.74467 
3.91751 4.97372 0.31174 
8.36782 10.06904 11.25619 
3.44724 4.87765 6.87721 
5.98815 5.19595 8.41843 
10.77538 8.14962 7.08758 
0.30541 6.17786 4.11312 
9.12969 6.26580 3.52079 
10.19744 9.54160 9.26936 
10.11969 5.70141 6.47603 
9.57369 0.61850 4.32870 
2.61331 5.60833 4.40763 
5.64814 2.89179 3.52968 
8.67428 0.53806 9.23416 
10.68949 8.64515 0.09688 
9.69596 3.25561 4.78487 
1.42653 8.09088 9.07487 
8.89865 5.96362 1.00468 
7.55069 11.14148 6.28549 
1.97105 8.07697 3.54087 
9.46063 10.99016 2.17697 
1.12844 1.69459 10.76388 
0.31805 1.92308 5.98160 
7.71050 5.24819 5.23670 
8.70944 5.05876 9.98339 
1.60422 2.65645 1.62152 
6.13156 6.59918 6.63737 
10.05484 1.98870 2.20044 
6.48270 5.39669 10.70448 
7.77483 2.02093 5.45719 
6.56621 1.90164 7.93341 
10.52549 8.59175 4.56586 
11.00565 3.67539 8.20493 
4.02965 9.47026 8.54215 
8.42227 3.96610 7.39834 
3.59063 5.99916 9.27764 
10.41571 6.83867 9.50871 
5.85745 3.89801 6.18500 
4.69177 3.30529 9.25333 
1.80486 3.94873 10.14462 
5.42429 0.98351 5.30852 
5.31265 9.71897 3.88103 
1.25233 10.57003 10.31624 
8.70314 3.56609 0.75591 
10.13574 2.40132 10.21138 
1.54142 7.41634 5.92888 
5.76171 9.51055 10.63642 
6.99439 7.77112 3.79475 
4.46587 9.08360 1.64268 
0.91484 4.69205 6.15713 
8.20399 6.50940 8.20064 
8.38504 7.96665 5.90200 
3.62252 7.96871 10.75393 
1.21312 5.86124 8.25353 
6.76556 10.35117 8.33745 
0.84315 10.36565 5.27193 
4.50239 7.38422 4.83754 
1.74998 0.28592 1.38056 
1.23323 10.50891 7.65096 
8.21914 9.80483 4.25558 
5.83006 1.10163 9.92739 
2.69296 10.66748 3.40575 
0.88361 1.13948 3.63553 
2.71089 0.82454 5.50747 

-0.304339 -1.053403 0.422064 
0.052933 -0.221490 -0.085194 
0.052714 0.299537 -0.403129 
-0.034152 0.748310 0.654241 
-0.011446 -0.284911 -0.188072 
0.888669 -0.656270 -0.255340 
-0.560958 -0.630210 0.471177 
0.032354 -0.016561 -0.317417 
-0.039384 0.349930 0.164293 
-0.308010 0.684051 0.468039 
0.029825 0.052284 -0.273018 
-0.944241 -0.378607 0.300616 
-0.635516 -0.431382 -0.746049 
0.723322 0.495031 -0.062827 
-0.006355 -0.018542 -0.191551 
-0.235317 -0.278180 0.552884 
-0.129221 -0.693310 0.490798 
1.211333 0.264054 0.363711 
-0.226088 -0.489206 -0.695079 
0.134531 -0.828210 -0.646921 
-0.241668 -0.157781 -0.061522 
0.064073 -0.297299 -0.064648 
-1.184222 0.686173 -0.921228 
0.193011 0.043963 -0.089427 
-0.101767 -0.248631 -0.213434 
0.894330 0.614690 -0.634830 
-0.176437 1.020457 -0.864209 
0.456152 -0.310526 0.121806 
0.311987 0.235293 -0.502143 
-0.401346 -1.017094 0.206265 
0.773075 0.568178 0.444236 
-0.071501 0.399907 -0.233774 
-0.369289 0.812379 -0.101195 
0.086672 0.092240 -0.137578 
0.068541 0.056900 -0.949298 
0.340044 -0.338961 -0.813553 
0.434637 -0.268718 0.407112 
-0.046839 0.027717 0.006184 
-0.277895 0.045946 -0.709408 
0.319837 0.714131 0.123696 
0.034820 -0.997998 0.017880 
0.151128 0.024145 0.389293 
-0.449062 -0.652419 1.163136 
-0.237081 0.298695 0.230241 
0.139905 0.122060 -0.226494 
-0.581971 0.513524 0.208536 
0.514413 0.288232 1.158833 
0.718548 0.060460 0.274300 
0.441609 -0.238207 0.379294 
-0.682088 -0.208324 0.159200 
0.229739 -0.113715 0.268276 
1.526651 0.377408 0.533022 
0.009310 0.685954 0.067500 
0.064746 0.537100 0.301559 
-0.131188 0.006288 -0.259810 
0.313603 0.453556 0.149555 
-0.825604 -0.311898 -0.661947 
-0.099866 0.035335 -0.420958 
0.014194 -0.354677 0.286033 
0.057921 -0.182070 -0.062811 
1.003761 -0.295537 -0.150840 
-0.598023 1.426177 -0.272685 
-0.207044 0.718912 -1.073241 
0.584873 0.286394 -0.245119 
-0.311427 0.109031 1.233008 
-1.040637 1.094285 -0.434254 
0.913594 0.292742 -1.673114 
0.001349 -0.319454 -0.326228 
-0.415216 0.096645 -0.143699 
-0.056896 0.714312 0.471400 
-0.090692 -0.084650 0.102403 
0.162285 -0.873380 0.507366 
0.413923 0.023417 -0.036517 
0.363403 -1.392661 1.247156 
-0.244251 -0.003003 0.159108 
0.343540 0.525719 -0.177550 
-0.283312 -0.140361 -0.185850 
0.200635 0.670693 0.183094 
-0.734508 -1.048651 -0.728957 
-0.109177 0.138366 -0.507902 
-1.041480 0.455192 0.671624 
0.163421 -0.092065 0.405973 
0.202046 0.837246 0.878696 
-0.618228 -0.692428 -0.248802 
-0.285275 0.171450 -0.005315 
0.566180 -0.216463 0.074198 
0.159113 0.588681 -0.684700 
0.070545 -0.166532 0.391003 
0.392929 0.169236 0.346824 
-0.056802 -0.161735 -0.138771 
0.099432 -0.450269 1.077447 
-0.537979 -0.072308 -0.473763 
-0.737916 0.698070 0.089519 
0.198303 -0.262480 -0.639877 
0.121511 -0.507669 0.103402 
-0.001821 0.315159 -0.300096 
-0.438309 -0.839612 1.046633 
0.648351 -1.344142 0.198265 
-0.589165 -0.282117 -0.026544 
-0.182759 -0.021799 0.295910 

-0.09209854999999999 -0.087002675 -0.08246186875 -0.0034495312500000003 0.0006436687500000001 0.00260433125 

2