111 1 Fe 26 -777.00861752 46.802522279999835 46.802522279999835
1.00000000 
    11.3365200000000002    0.0000000000000000    0.0000000000000000
     0.0000000000000000   11.3365200000000002    0.0000000000000000
     0.0000000000000000    0.0000000000000000   11.3365200000000002
100
Cartesian 
0.32323 10.13944 2.72625 
5.62801 9.18758 6.35591 
3.65183 7.33313 7.53681 
10.42047 11.30649 11.13456 
10.64157 4.63901 2.53247 
11.12821 0.89399 8.66768 
7.14260 10.01863 1.96347 
8.30696 7.76908 10.51482 
5.15864 0.28988 1.12982 
2.82940 0.62590 9.05842 
1.82896 8.79565 1.16186 
3.56533 3.10743 5.01756 
6.19388 3.20384 1.12585 
4.14719 6.69135 2.47776 
6.55441 5.49833 2.24058 
7.63654 2.97086 9.79838 
3.64852 2.38695 0.08486 
3.35019 10.45812 11.11976 
4.78578 0.32742 7.59861 
5.87368 7.59103 9.37544 
1.56348 6.63746 10.94380 
7.98320 1.03873 0.54739 
11.30398 7.36441 2.12661 
6.97491 0.79480 3.10498 
9.08633 8.49243 2.16270 
3.55391 3.94761 2.65859 
5.14897 5.17646 4.35948 
1.70817 2.91859 7.85878 
11.06160 4.37981 0.24016 
1.72996 5.64763 1.96212 
3.50038 1.41879 2.79920 
6.27432 7.66326 0.87885 
9.48077 1.56094 7.13544 
8.11312 3.64613 3.24271 
9.93423 10.51037 7.01670 
1.20351 3.55336 4.08754 
3.13963 9.67969 5.74296 
3.91699 4.95037 0.24725 
8.31173 10.13984 11.12012 
3.41418 4.86827 6.76080 
5.97022 5.24987 8.42789 
10.85318 8.11776 7.07855 
0.31779 6.17127 4.11820 
8.98556 6.24019 3.48488 
10.26782 9.63474 9.34315 
10.08207 5.67282 6.49511 
9.61460 0.60027 4.32273 
2.64031 5.48372 4.36984 
5.70628 2.75809 3.60201 
8.70981 0.59664 9.24137 
10.64625 8.67575 0.14933 
9.77307 3.30172 4.79422 
1.44163 8.15086 9.09419 
8.83195 6.10470 0.91909 
7.52635 11.09008 6.35862 
2.08337 8.10977 3.52189 
9.43118 10.94838 2.18530 
1.11376 1.54525 10.66102 
0.27750 1.85964 6.02011 
7.64836 5.31336 5.31277 
8.81499 4.96540 9.93124 
1.64929 2.84234 1.53594 
6.12446 6.65340 6.50757 
10.11549 2.14604 2.23646 
6.51428 5.33536 10.69774 
7.64841 1.90000 5.44990 
6.55513 1.91665 7.88967 
10.44012 8.63336 4.61363 
11.05526 3.68519 8.21441 
4.00298 9.53597 8.57198 
8.26828 3.92409 7.47263 
3.58631 5.94573 9.31454 
10.44394 6.93670 9.44887 
5.89761 3.89588 6.19179 
4.74208 3.24839 9.30005 
1.91061 3.81244 10.14771 
5.32642 0.96312 5.43823 
5.29145 9.70942 3.80654 
1.18986 10.39035 10.16054 
8.70714 3.64985 0.77210 
10.21397 2.34531 10.25301 
1.51722 7.35909 5.84060 
5.79412 9.49168 10.62471 
6.99511 7.81660 3.83618 
4.32614 9.03960 1.68205 
0.92678 4.73902 6.25041 
8.36839 6.60484 8.14295 
8.35698 8.00565 5.72116 
3.76110 8.00703 10.81095 
1.34047 5.91011 8.30511 
6.67644 10.34820 8.41554 
0.82029 10.41237 5.31033 
4.35888 7.49325 4.92691 
1.65772 0.28823 1.30811 
1.37279 10.40547 7.64758 
8.33254 9.89954 4.27458 
5.75829 1.10677 9.96462 
2.77907 10.65509 3.40260 
0.91317 1.08823 3.62077 
2.72108 0.76867 5.48393 

-0.215739 -0.868810 0.203394 
0.157245 -0.038647 0.051881 
0.257047 0.789745 -0.984989 
0.216660 0.687001 0.760208 
-0.080530 -0.341123 0.233245 
1.274862 -0.691750 -0.370599 
-1.268865 -0.588754 -0.399524 
-0.145988 -0.087527 -0.099567 
0.344201 0.030438 0.271224 
0.011867 0.619193 0.415283 
-0.017122 0.133629 -0.515123 
-0.037229 -0.144120 0.271121 
-0.407150 -0.428913 -0.407884 
0.043830 -0.284341 -0.254138 
0.005128 -0.309154 -0.045440 
-0.554480 -0.504106 0.680199 
0.049596 -0.682302 0.164347 
0.664474 0.906546 -0.049583 
-0.523590 -0.568584 -0.048458 
-0.003968 -0.716477 -0.677832 
-0.160383 -0.465854 0.241236 
-0.018991 0.754594 -0.014452 
-0.549006 -0.152540 -0.249024 
0.379269 -0.080970 0.011899 
-0.340845 -0.164393 -0.234250 
0.694680 0.368288 -0.779858 
0.146562 0.369780 -0.267591 
1.643448 -0.794468 -0.250386 
0.408022 0.337683 -0.546231 
0.195228 -0.371837 0.048466 
0.392120 0.974709 0.283216 
0.315455 -0.058171 -0.046826 
-0.959656 0.873532 -0.389682 
-0.483702 0.115908 -0.435132 
0.288630 0.017088 -0.774793 
-0.163189 -0.379634 -0.773303 
0.548599 -0.262698 0.423314 
0.025511 0.026366 0.449203 
-0.397139 -0.313194 -0.174156 
0.612560 0.803756 0.294385 
0.153182 -0.711476 -0.562147 
-0.196759 0.189464 0.410916 
-0.594470 -0.396937 0.818139 
0.215771 0.146833 -0.104087 
-0.096111 -0.232647 -0.953262 
-0.469697 0.498203 0.058817 
0.676326 0.698434 1.179168 
0.424042 0.966899 0.220983 
-0.017027 0.609173 0.352257 
-1.127515 -0.454920 0.070116 
0.264492 0.023082 0.057476 
1.122043 0.030725 0.797938 
0.193916 0.449607 -0.095321 
0.291830 0.141290 0.258126 
-0.176918 0.034903 -0.223434 
0.019609 0.045333 0.254316 
-0.092837 0.324477 -0.879321 
0.168820 0.372329 -0.047261 
0.284983 -0.192680 0.027186 
0.558259 -0.503132 -0.400222 
0.738867 0.511209 -0.260668 
-0.621104 0.537028 -0.195965 
-0.379704 0.639887 -0.133006 
0.424817 -0.342490 -0.230661 
-0.028490 0.074417 1.221071 
-0.095029 1.351684 -0.595947 
0.749921 0.095760 -1.155513 
0.595727 -0.347197 -0.444943 
-1.739312 0.377421 0.189737 
-0.175755 0.406961 0.377882 
0.197418 0.033718 -0.172103 
0.324900 -0.922054 0.821666 
0.376524 -0.217842 0.156530 
-0.370673 -1.146085 0.591554 
-0.297063 0.307098 0.357392 
0.362909 0.728228 0.122296 
-0.006050 0.099131 -0.877380 
0.087583 0.607200 0.393000 
-0.035952 -0.376318 0.095517 
-0.289236 -0.114887 -0.416422 
-1.247079 0.724019 0.584791 
0.558932 0.048410 0.742064 
0.026423 1.084034 1.031922 
-1.064537 -0.707457 -0.681036 
0.245295 0.449645 0.069048 
0.432660 -0.502599 -0.496140 
-0.358895 0.157642 -0.558377 
0.205364 -0.535326 1.452072 
-0.134500 -0.448816 -0.127625 
-0.449618 -0.427663 -0.196583 
0.242944 -0.374050 0.862751 
-0.585665 -0.208386 -0.551867 
-0.629423 0.020192 -0.063579 
0.311950 -0.203824 0.130067 
-0.223222 -0.331645 0.029260 
-0.562492 0.379962 -0.155891 
-0.078352 -0.870805 0.750777 
0.123543 -1.288200 -0.130296 
-0.437470 0.197411 -0.135267 
-0.145555 -0.014226 0.345668 

-0.09200637499999999 -0.086695675 -0.08082392499999999 -0.00286343125 0.0008112 0.00034215625 

2