111 1 Fe 26 -775.65382020 48.15731959999982 48.15731959999982
1.00000000 
    11.3365200000000002    0.0000000000000000    0.0000000000000000
     0.0000000000000000   11.3365200000000002    0.0000000000000000
     0.0000000000000000    0.0000000000000000   11.3365200000000002
100
Cartesian 
0.26773 10.01505 2.87722 
5.57357 9.16854 6.32923 
3.60418 7.33089 7.61900 
10.42285 0.06460 11.25371 
10.69605 4.73646 2.44473 
11.18740 0.70997 8.58533 
7.17924 9.95151 2.06187 
8.36660 7.84763 10.35003 
5.03803 0.36053 1.11590 
2.81217 0.62771 9.20192 
1.75495 8.78504 1.16742 
3.33934 3.02596 4.93580 
6.02813 3.15396 0.98014 
4.38630 6.86727 2.57409 
6.63395 5.55119 2.05855 
7.66758 2.88955 9.89488 
3.63113 2.18467 0.25941 
3.36326 10.34685 11.28318 
4.71525 0.25118 7.55303 
5.99858 7.49449 9.30744 
1.56352 6.75439 10.94757 
8.00308 0.90789 0.54684 
11.17110 7.50075 2.11026 
6.91802 0.74799 3.03362 
9.10699 8.47203 2.25378 
3.78625 4.06040 2.52421 
5.17083 5.33248 4.20163 
1.62802 2.80763 8.07856 
11.14137 4.29029 0.15151 
1.66155 5.54777 2.00969 
3.61766 1.47696 2.77028 
6.20179 7.82285 0.78176 
9.42712 1.63225 7.06117 
8.16297 3.72072 3.31822 
9.90206 10.45908 6.84487 
1.24761 3.48742 3.99367 
3.14363 9.62230 5.79171 
3.92371 4.91350 0.21601 
8.19060 10.19778 10.90123 
3.44434 4.95319 6.63131 
5.96381 5.24091 8.37437 
10.94230 8.09529 7.11177 
0.26347 6.11455 4.21588 
8.80681 6.22284 3.41569 
10.34072 9.73686 9.33019 
9.98288 5.68601 6.52231 
9.75721 0.66135 4.45036 
2.72315 5.42422 4.33902 
5.77682 2.64865 3.74565 
8.63473 0.62919 9.25508 
10.61465 8.73473 0.22183 
10.01424 3.37548 4.89827 
1.49372 8.24866 9.09394 
8.77449 6.32365 0.82247 
7.46654 11.02531 6.43963 
2.23647 8.15565 3.52317 
9.38594 10.93017 2.10061 
1.10902 1.38628 10.51174 
0.26154 1.74299 6.08007 
7.62588 5.34256 5.37737 
9.05019 4.89221 9.82375 
1.63838 3.16932 1.39329 
6.06613 6.80399 6.31253 
10.25425 2.33042 2.26120 
6.56048 5.25489 10.82240 
7.46565 1.88369 5.36850 
6.61746 1.93784 7.70648 
10.39617 8.64960 4.62848 
10.91862 3.75024 8.24936 
3.94137 9.66982 8.66593 
8.07379 3.87158 7.55586 
3.62407 5.76866 9.44917 
10.53507 7.04970 9.38470 
5.90557 3.76272 6.26186 
4.78142 3.20248 9.41189 
2.11060 3.70361 10.17572 
5.18889 0.94753 5.50295 
5.27252 9.76970 3.75192 
1.10351 10.13268 9.98777 
8.67716 3.76268 0.75077 
10.17858 2.34192 10.37247 
1.55334 7.28400 5.80869 
5.83772 9.59336 10.72535 
6.86406 7.79849 3.81435 
4.15925 9.03783 1.74720 
0.99114 4.73989 6.32219 
8.55365 6.76391 7.99674 
8.33665 8.00008 5.63480 
3.93927 7.99898 10.86603 
1.46364 5.92643 8.35672 
6.57987 10.30253 8.62283 
0.72085 10.45367 5.30387 
4.08601 7.63852 5.04401 
1.56286 0.26439 1.22487 
1.55316 10.22075 7.63977 
8.42073 10.07522 4.29039 
5.64775 1.01127 10.10255 
2.91148 10.50385 3.38071 
0.90787 1.03778 3.58172 
2.71243 0.68352 5.49096 

-0.093196 -0.223912 -0.504124 
0.271334 0.459164 0.246897 
0.473286 0.529839 -0.331885 
0.230513 -0.235330 -0.239328 
-0.427718 -0.324426 0.334208 
0.164399 -0.066514 -0.209470 
-1.180286 -0.403115 -0.955667 
-0.336951 -0.180017 0.042480 
0.916012 -0.459427 0.547210 
0.661285 0.242481 -0.168219 
-0.119208 0.181957 -0.508181 
1.092461 0.146131 0.375621 
-0.144259 -0.462814 -0.105953 
-0.381849 -0.697052 -0.253284 
-0.192716 -0.464584 0.260634 
-0.807464 -0.068083 0.353601 
0.000228 -0.235542 -0.573069 
-0.242806 1.212806 -0.889054 
-0.267055 -0.162922 0.562595 
-0.301965 0.385960 -0.237784 
-0.032630 -0.650230 0.369973 
-0.431200 1.630931 0.146149 
0.723045 -1.467666 0.767864 
0.517624 -0.093379 0.123464 
-1.014183 0.104386 0.143819 
0.161496 -0.240990 -0.011117 
0.545370 -0.336530 0.858750 
0.821544 -0.649027 -0.782333 
0.179726 0.620233 -0.509901 
0.522395 0.539508 -0.030551 
-0.459637 0.497850 0.618258 
0.931650 -1.059038 0.430977 
-0.777894 0.291304 -0.040620 
-0.165783 -0.219139 -0.337369 
0.264638 0.271208 -0.435582 
-0.799803 0.309494 -0.815311 
0.222046 0.515277 0.280389 
0.309605 -0.203028 0.917279 
0.257582 -0.488755 0.356679 
0.653406 0.620542 0.548463 
0.173132 -0.406582 -0.400524 
-0.326517 0.225796 0.071670 
-0.390845 -0.134515 0.104615 
0.610021 0.139116 -0.272675 
-1.119445 -0.575077 -1.093292 
0.416262 0.008955 -0.424230 
0.379180 0.593133 0.407544 
-0.276954 1.034939 -0.031425 
-0.707024 1.261333 -0.228530 
-0.326468 -0.298738 -0.243601 
0.119359 0.524971 -0.555533 
0.132219 0.042108 0.278628 
0.564099 -1.985663 -0.880320 
0.531141 -0.287950 0.089058 
-0.204220 0.387862 -0.136738 
-0.836874 -0.495658 0.023452 
0.459294 0.466470 -0.030054 
-0.121333 1.154030 0.616368 
0.679662 -0.043800 0.031843 
0.460416 -0.621096 -0.205957 
-0.100295 0.626520 -0.120053 
-0.387541 -0.592609 0.252941 
-0.264701 -0.116947 0.695962 
0.113492 -0.679467 -0.219870 
0.152206 0.115067 0.030742 
1.009157 0.737034 -0.324230 
-0.101421 -0.718149 0.587095 
0.824348 -0.424223 -0.322045 
-0.802065 0.202136 0.039491 
-0.174579 -0.538418 0.491045 
0.688911 0.360759 -0.371355 
0.422112 0.061360 -0.452844 
0.332112 -0.472531 0.407481 
-0.785946 -0.111921 -0.440175 
-0.143600 0.262338 0.321581 
0.146951 0.675728 0.420016 
0.378324 0.130811 -1.481133 
0.212991 0.392239 0.684610 
0.673834 2.479481 2.397972 
-0.287975 0.001838 0.053175 
-0.775243 0.168883 -0.194072 
0.526296 0.162212 0.970738 
-0.502886 0.694711 0.477508 
-0.865959 -0.375584 -0.415700 
0.789908 0.579114 -0.096337 
0.006494 -0.773247 -0.724239 
-1.061550 0.028112 0.119323 
-0.033139 -0.244729 1.139547 
-0.648905 -0.825265 -0.736049 
-0.779532 -0.577564 -0.206240 
0.458318 -0.047099 -0.277144 
-0.046664 -0.255263 -0.115053 
0.588334 -1.160580 -0.447457 
0.372273 -0.218643 0.643188 
-0.177451 0.287313 -0.336632 
-0.886837 -0.217966 0.140091 
0.271871 -0.411370 -0.029045 
-0.677711 0.421795 -0.138070 
-0.063869 0.264497 -0.144607 
-0.357985 -0.047767 0.253004 

-0.0899519125 -0.0825005 -0.07800815625 -0.0024808875 0.0012619875 -0.004217225 

2