111 1 Fe 26 -776.48989571 47.32124408999982 47.32124408999982
1.00000000 
    11.3365200000000002    0.0000000000000000    0.0000000000000000
     0.0000000000000000   11.3365200000000002    0.0000000000000000
     0.0000000000000000    0.0000000000000000   11.3365200000000002
100
Cartesian 
0.13584 9.75480 2.73031 
5.62553 9.42091 6.47831 
3.91935 7.66650 7.71325 
10.43856 0.11485 11.17769 
10.55290 4.79631 2.28183 
0.00395 0.36644 8.36548 
6.70950 9.76687 1.87071 
8.34153 7.92162 10.01339 
5.26563 0.21446 1.69421 
3.11752 0.82852 9.43514 
1.66904 8.82492 0.97694 
3.30347 3.09578 5.03896 
5.67198 2.71837 0.69870 
4.45930 6.81250 2.43437 
6.61539 5.32568 1.95060 
7.24040 2.81807 10.06381 
3.40626 1.78314 0.30812 
3.32393 10.75054 11.23487 
4.50362 0.04890 7.47133 
6.02154 7.55571 8.96584 
1.54861 6.49781 11.13174 
7.82738 1.34458 0.60553 
11.10450 7.14539 2.33715 
7.08400 0.74849 3.07398 
8.74433 8.56361 2.52090 
4.20595 4.12871 2.63404 
5.46912 5.29553 4.50603 
1.76527 2.33685 8.12743 
11.26007 4.58360 10.87850 
1.86176 5.85580 2.10210 
3.55064 1.74661 3.03327 
6.55481 7.50659 0.67928 
9.09476 1.84481 6.96729 
8.29111 3.72002 3.28271 
9.85737 10.50733 6.31768 
1.08801 3.65568 3.46288 
3.35747 9.71171 5.85716 
4.16930 4.95541 0.42018 
8.23082 10.22106 10.92683 
3.83427 5.48771 6.64035 
5.97412 5.09337 8.09068 
10.94624 8.14261 7.15664 
0.12318 5.92067 4.47329 
8.72729 6.19547 3.20945 
9.90425 9.62490 8.86238 
10.09109 5.74468 6.43287 
10.03890 0.98592 4.76285 
2.72195 5.57917 4.25408 
5.75029 3.10921 3.73004 
8.41433 0.56702 9.08517 
10.51627 9.09481 0.21327 
10.43256 3.61211 5.25732 
1.87559 7.81118 8.95242 
9.05038 6.62406 0.65504 
7.32628 11.15835 6.45953 
1.90666 7.96994 3.49611 
9.36170 11.07760 2.10149 
0.92028 1.80760 10.60849 
0.55796 1.58726 6.28524 
7.74718 5.11793 5.45444 
9.19471 5.24005 9.75423 
1.63729 3.31231 1.20492 
6.00484 6.82426 6.37502 
10.56855 2.32589 2.05946 
6.67050 5.19606 10.77238 
7.70742 2.18911 5.11267 
6.56997 1.55166 7.80027 
10.55514 8.25802 4.63410 
10.56555 3.70115 8.08100 
3.86088 9.56487 9.21559 
8.09588 3.93004 7.57597 
3.96646 5.55568 9.27906 
10.86248 7.04919 9.50595 
5.44906 3.46132 6.13484 
4.87872 3.17706 9.84612 
2.48624 3.74594 10.27791 
5.05737 0.87521 5.00891 
5.36772 10.14951 4.07053 
1.15251 10.35891 10.41916 
8.51322 4.02829 0.81928 
9.70179 2.46327 10.46409 
1.75380 7.09199 6.34211 
5.55651 9.89267 11.23342 
6.32562 7.72077 3.69209 
4.29477 9.17314 1.72536 
1.25218 4.20258 6.06551 
8.35420 7.07304 7.86298 
8.21967 8.01565 5.70565 
3.98143 7.62953 10.70958 
1.37904 5.46459 8.31433 
6.60257 10.10035 8.73956 
0.69319 10.35082 5.26888 
4.11646 7.44780 4.96547 
1.47616 0.11946 1.40143 
1.69847 10.07108 7.61549 
8.18534 10.26836 4.27473 
5.54101 0.70737 10.21277 
2.67281 10.59307 3.37654 
0.93507 1.03743 3.49149 
2.56209 0.60233 5.61887 

-0.264375 0.189231 0.287918 
0.483558 -0.676005 0.037816 
-0.022097 -0.093255 -0.403884 
-0.484805 0.541464 -0.256776 
0.470454 -0.307046 -0.423361 
-0.470163 0.446050 0.779167 
1.662721 0.072158 1.136068 
-0.242108 0.200081 0.803088 
-1.347986 1.163903 -0.300238 
-0.413967 0.209252 -0.593671 
0.549264 -0.415039 0.270599 
-0.062183 0.281526 -0.279080 
0.465263 0.587977 1.382981 
-0.533561 -0.674831 -0.197542 
-0.503414 -0.235281 0.378380 
0.851767 0.398112 -0.902048 
0.309865 0.730326 0.466563 
0.252232 -0.701590 0.999233 
0.158928 0.039359 0.048488 
-0.058175 0.086481 0.545965 
0.179334 -0.305121 -0.637383 
0.483609 -0.555661 0.124258 
-0.353850 1.130088 -0.736897 
0.296052 0.621581 0.549805 
0.669012 -0.212593 -0.392086 
-2.151276 0.760983 -0.890888 
-0.694115 0.643096 -0.375858 
0.065472 0.876437 -0.016480 
-0.184938 -0.275990 0.241464 
0.128054 -0.515980 -0.259993 
-0.262778 -0.376404 -0.428398 
-0.337224 0.155676 0.177754 
0.811700 -0.728603 0.332753 
0.174409 -0.182901 -0.205957 
-0.050428 -0.126291 0.711965 
0.514612 -0.199906 1.175470 
-0.457667 -0.406221 -0.446759 
0.145357 0.257288 -0.365567 
-0.452189 0.030031 0.420001 
-0.730493 -1.000243 -0.157959 
0.315655 -0.062973 0.437971 
-0.027465 -0.095277 -0.036174 
0.781761 -0.025637 -0.600916 
-0.149145 -0.011408 0.502578 
-0.138611 0.143249 0.689722 
-0.000775 0.378485 0.705641 
-0.693128 -0.207363 -0.987121 
0.236201 -0.463171 0.727062 
1.701850 -1.684421 0.158414 
0.294261 -0.086655 0.357422 
-0.020033 -0.726377 0.324908 
-1.280278 -0.424057 -0.401469 
-0.407492 0.313786 0.373447 
0.164646 -0.506510 0.108270 
0.400872 0.142371 -0.496005 
0.010890 0.226020 0.662831 
-0.117177 0.034323 -0.011585 
-0.284881 -0.188596 -0.051245 
-1.092912 0.386368 -0.594708 
0.258179 0.206153 -0.152124 
-0.782385 -0.248285 -0.129315 
-0.139991 0.237330 0.058583 
0.711634 0.168648 0.204546 
-0.295823 -0.376295 -0.529218 
-0.272076 0.344806 -0.403544 
-0.534040 0.094011 0.571209 
-0.435700 0.793818 0.357531 
-0.228768 0.182414 -0.032796 
0.903963 -0.232900 0.069530 
0.374463 0.615369 -0.485504 
0.133755 -0.042747 0.117881 
-0.487284 0.241462 0.237073 
-0.187261 0.006986 0.099677 
0.836854 -0.020896 0.758865 
-0.297822 0.187147 -0.886942 
-0.563987 0.333596 -0.493223 
0.161217 0.855213 0.529621 
-0.080755 -0.967896 -0.631088 
-0.261556 -0.506211 -1.383523 
0.186170 -0.164094 -0.387496 
0.306150 0.194117 -0.352231 
-0.031706 -0.075571 -0.633752 
0.864405 -1.400543 -1.987668 
0.728245 0.139140 -0.008770 
-0.699535 -0.523211 0.763818 
0.116899 0.488587 0.521364 
0.105498 -0.888114 -0.336119 
-0.031140 0.302509 -0.595002 
-0.010399 0.074669 0.547419 
-0.029509 0.104634 0.279945 
0.158942 -0.078030 0.115217 
0.272643 -0.408232 -0.192668 
-0.110338 0.980223 -0.042554 
-0.403587 0.517586 -0.683680 
0.033666 0.034396 0.095151 
0.034348 -0.524558 -0.035618 
0.247165 0.259934 -0.092751 
0.535757 -0.421305 0.055487 
-0.072711 0.477961 0.753693 
0.698301 0.463794 -0.128786 

-0.0915302125 -0.08695750625000001 -0.0811927625 0.00012808750000000002 0.00317929375 -0.0087712125 

2