111 1 Fe 26 -775.58087187 48.230267929999854 48.230267929999854
1.00000000 
    11.3365200000000002    0.0000000000000000    0.0000000000000000
     0.0000000000000000   11.3365200000000002    0.0000000000000000
     0.0000000000000000    0.0000000000000000   11.3365200000000002
100
Cartesian 
0.22286 9.90853 2.93922 
5.55972 9.18960 6.33084 
3.61158 7.37901 7.63547 
10.44441 0.11771 11.32292 
10.69908 4.77177 2.41507 
11.25365 0.57880 8.51240 
7.10122 9.87236 2.05021 
8.37862 7.88409 10.24557 
5.03096 0.37272 1.15163 
2.84950 0.65469 9.28811 
1.69815 8.79334 1.12771 
3.27130 2.98241 4.91278 
5.90588 3.08245 0.87357 
4.51297 6.92608 2.61415 
6.67179 5.54723 1.95851 
7.62120 2.82486 9.99154 
3.61874 2.02879 0.33352 
3.36136 10.37450 11.32344 
4.64365 0.18359 7.56358 
6.05752 7.45178 9.23770 
1.55930 6.77632 10.98042 
7.98472 0.95096 0.55678 
11.13011 7.48021 2.15346 
6.92349 0.70949 2.99703 
9.04480 8.46508 2.31982 
3.95685 4.11984 2.42835 
5.22722 5.41122 4.16050 
1.66717 2.67453 8.16012 
11.21005 4.28279 0.04927 
1.65777 5.52164 2.03931 
3.66435 1.56330 2.79905 
6.22641 7.84847 0.74847 
9.32355 1.70967 7.00517 
8.17646 3.75498 3.33710 
9.90380 10.44566 6.69309 
1.21673 3.46206 3.86546 
3.17008 9.61797 5.84763 
3.95071 4.87623 0.26654 
8.12671 10.19574 10.78579 
3.51954 5.06376 6.59038 
5.97398 5.19814 8.30152 
10.97371 8.09950 7.14325 
0.19340 6.06428 4.29525 
8.73813 6.22252 3.34910 
10.30976 9.75852 9.23138 
9.94394 5.70124 6.51008 
9.88459 0.75221 4.57684 
2.76197 5.47354 4.31952 
5.77007 2.67852 3.82595 
8.54741 0.62281 9.24622 
10.60581 8.81075 0.23076 
10.19353 3.42630 4.99646 
1.56923 8.18590 9.03446 
8.78009 6.44564 0.76881 
7.41106 11.01160 6.47954 
2.27349 8.14920 3.52875 
9.38961 10.95723 2.03243 
1.09945 1.37223 10.45978 
0.30363 1.66326 6.12124 
7.65212 5.30996 5.39827 
9.20296 4.90001 9.74300 
1.59822 3.34017 1.31641 
6.00481 6.90026 6.23749 
10.35716 2.39613 2.25848 
6.60171 5.21189 10.92012 
7.42155 1.94319 5.28519 
6.65884 1.90024 7.61692 
10.43460 8.62390 4.61012 
10.73960 3.81437 8.27749 
3.88693 9.72172 8.76709 
8.00044 3.86398 7.58049 
3.68382 5.64732 9.51453 
10.62281 7.08576 9.37475 
5.84715 3.65455 6.28096 
4.79320 3.19582 9.51255 
2.25589 3.68997 10.22587 
5.12681 0.94808 5.42641 
5.27590 9.84484 3.77146 
1.09609 10.12777 10.04377 
8.63316 3.83455 0.73650 
10.08393 2.36133 10.44183 
1.62132 7.24714 5.86841 
5.82841 9.72190 10.83977 
6.70203 7.75144 3.76011 
4.11293 9.08393 1.78242 
1.03883 4.67732 6.30851 
8.59187 6.87025 7.90409 
8.32420 7.97108 5.68197 
4.00475 7.92776 10.84640 
1.48133 5.88867 8.37238 
6.55294 10.26466 8.74636 
0.64674 10.45910 5.28456 
3.94503 7.64893 5.08655 
1.53188 0.23052 1.22060 
1.65226 10.11773 7.61327 
8.40588 10.17882 4.30852 
5.59566 0.90921 10.19724 
2.94842 10.42113 3.35506 
0.89592 1.02739 3.54429 
2.67952 0.62550 5.51775 

0.133265 0.254130 -0.992315 
0.213436 0.590633 0.322802 
0.568004 0.351417 0.035865 
0.054505 -0.495131 -0.796352 
-0.552658 -0.200145 0.136953 
-0.302179 0.368957 -0.151103 
-0.780834 0.056500 -0.782490 
-0.239648 -0.210160 0.102381 
1.155575 -0.869473 1.039850 
0.825402 0.075072 -0.421217 
0.095427 0.152509 -0.264504 
0.906244 0.416870 0.479029 
0.109946 -0.499676 0.023222 
-0.644699 -0.451002 -0.470857 
-0.288244 -0.423900 0.446809 
-0.752237 0.328575 -0.154433 
-0.519113 0.463211 -0.872011 
-0.327429 0.906183 -0.970003 
0.119597 0.264784 -0.113974 
-0.434790 0.616339 -0.173926 
-0.005560 -0.732325 0.230326 
-0.439713 1.083698 0.024371 
0.585739 -1.237257 0.509338 
0.360758 0.170714 0.285643 
-0.683532 0.291809 0.146972 
-0.261681 -0.534853 0.911498 
0.430238 -0.873887 1.248291 
-0.040254 -0.101052 -0.753014 
-0.348479 0.884277 -0.550743 
0.555240 1.125882 0.060076 
-0.599249 0.106916 0.640600 
0.825402 -1.235018 0.294226 
-0.155797 -0.053321 0.236473 
0.130983 -0.338717 -0.253340 
0.061486 0.350814 -0.091621 
-0.414636 0.714256 -0.492113 
0.090711 0.775450 -0.042340 
0.395940 0.067686 0.639260 
0.818090 -0.018946 1.011014 
0.421627 0.500214 0.551666 
-0.002649 -0.083389 -0.093416 
-0.304020 0.139540 -0.186909 
0.006068 0.002030 0.005842 
0.582990 0.023440 -0.059288 
-0.859320 -0.514297 -0.538147 
0.808008 -0.228658 -0.462739 
-0.263580 0.003701 -0.113039 
-0.464062 0.333499 -0.163864 
-0.633610 1.200081 -0.835545 
0.218162 -0.148153 -0.393293 
-0.081771 0.356605 -0.344247 
-0.427644 0.111248 -0.012772 
0.447830 -1.054793 -0.145453 
0.607061 -0.427356 0.064491 
0.005434 0.496932 -0.204943 
-1.269759 -0.561484 -0.263141 
0.108898 0.146768 0.573551 
-0.510046 1.377329 0.968690 
0.535210 0.226343 0.191948 
0.074356 -0.350382 0.020025 
-0.712605 0.651092 0.308565 
0.290258 -1.446243 0.385574 
0.191809 -0.811802 0.766761 
-0.120749 -0.629530 -0.323864 
-0.007959 0.222810 -0.709465 
1.376079 0.165818 0.042959 
-0.356156 -0.985150 1.238598 
0.198859 -0.659507 0.080737 
0.434533 -0.465059 -0.423927 
0.068302 -0.989628 0.555865 
0.913675 0.425828 -0.217181 
0.297685 0.580316 -1.166391 
0.043510 -0.503967 0.416847 
-0.800235 0.414391 -0.746579 
0.015319 0.067997 0.259387 
-0.206031 0.371509 -0.003216 
0.307469 -0.181308 -0.813580 
0.347072 0.260292 0.719816 
0.497321 1.349242 1.520316 
-0.149641 0.001177 0.301719 
-0.370525 -0.000311 -0.436679 
-0.055302 -0.046969 0.915964 
-0.921725 0.182191 0.570853 
-0.316732 -0.007574 0.049877 
1.002669 0.035204 -0.524852 
-0.001061 -0.756053 -0.627600 
-1.108202 0.068253 0.599732 
-0.117618 0.155515 0.199444 
-0.660793 -0.402962 -0.444598 
-0.533999 -0.714847 -0.302968 
0.399772 -0.007224 -1.078512 
0.474061 -0.199147 0.193043 
1.588358 -1.314791 -0.608032 
0.257695 -0.171192 0.561034 
-0.437983 0.644174 -0.065795 
-0.524575 -0.455773 -0.117669 
0.309457 -0.012818 -0.492416 
-1.100427 1.248489 0.237524 
0.138788 0.104819 -0.018299 
-0.294809 0.121645 0.158832 

-0.09020828125 -0.0810757875 -0.0758360125 -0.00361835625 0.00103475 -0.00678203125 

2