111 1 Fe 26 -776.57465589 47.23648390999983 47.23648390999983
1.00000000 
    11.3365200000000002    0.0000000000000000    0.0000000000000000
     0.0000000000000000   11.3365200000000002    0.0000000000000000
     0.0000000000000000    0.0000000000000000   11.3365200000000002
100
Cartesian 
0.15558 9.75935 2.81034 
5.59191 9.37332 6.42885 
3.81225 7.59279 7.69537 
10.46969 0.12243 11.25448 
10.58562 4.80353 2.33612 
0.00316 0.38405 8.36067 
6.75862 9.76182 1.87779 
8.35613 7.91694 10.03856 
5.24006 0.22611 1.53822 
3.07382 0.76859 9.41753 
1.63716 8.83084 0.99784 
3.29239 3.02939 4.99085 
5.69049 2.79780 0.67813 
4.55097 6.89581 2.52509 
6.66050 5.40480 1.90291 
7.32772 2.78554 10.10841 
3.46135 1.79803 0.31691 
3.31792 10.65909 11.23431 
4.51984 0.07618 7.51399 
6.06037 7.51049 9.02427 
1.54885 6.60640 11.10649 
7.85493 1.26576 0.58938 
11.12446 7.19821 2.32379 
7.03186 0.70278 3.01817 
8.79087 8.53028 2.48994 
4.23248 4.12330 2.53802 
5.43185 5.34746 4.39117 
1.74753 2.37582 8.16069 
11.26888 4.49312 10.99954 
1.79436 5.75476 2.10407 
3.60710 1.73952 2.98913 
6.47342 7.60993 0.70116 
9.10319 1.84682 6.95220 
8.25399 3.74460 3.31045 
9.88647 10.49196 6.36138 
1.09499 3.59012 3.50736 
3.30169 9.71597 5.89723 
4.10835 4.89271 0.42544 
8.18855 10.20440 10.82862 
3.77792 5.41862 6.62099 
5.97870 5.10324 8.12274 
10.96509 8.13536 7.16333 
0.09149 5.95027 4.45880 
8.71776 6.20980 3.21371 
10.02241 9.67164 8.91854 
10.04182 5.71864 6.42263 
10.05502 0.94724 4.77887 
2.74036 5.59704 4.25095 
5.68952 3.02595 3.78205 
8.41899 0.58100 9.12564 
10.54764 9.04982 0.20505 
10.44869 3.57571 5.21575 
1.82324 7.87617 8.93252 
8.96194 6.61404 0.67054 
7.31863 11.10700 6.49311 
2.02941 8.01356 3.49122 
9.38510 11.05032 2.05159 
0.96914 1.67633 10.55528 
0.51584 1.56971 6.25789 
7.72407 5.15959 5.44687 
9.27565 5.13314 9.71485 
1.60842 3.36321 1.22517 
5.95978 6.88350 6.29426 
10.54389 2.37566 2.13707 
6.67280 5.17815 10.87738 
7.63070 2.12885 5.12556 
6.62975 1.61768 7.71414 
10.54267 8.36504 4.61665 
10.52978 3.77363 8.16224 
3.83054 9.61207 9.12246 
8.04847 3.91907 7.58207 
3.90277 5.53676 9.36864 
10.82047 7.06336 9.46026 
5.53297 3.49174 6.16471 
4.84971 3.18349 9.79596 
2.48523 3.72757 10.29506 
5.05844 0.89139 5.09175 
5.34947 10.08874 3.99699 
1.15578 10.33026 10.39437 
8.52404 3.99424 0.79062 
9.78159 2.42875 10.48554 
1.73856 7.13453 6.23143 
5.60848 9.94297 11.20476 
6.34914 7.69633 3.68307 
4.24599 9.17482 1.73383 
1.18358 4.32705 6.12506 
8.42732 7.07384 7.85040 
8.25222 7.97776 5.75197 
4.00303 7.68907 10.72682 
1.40848 5.58815 8.33159 
6.58067 10.14889 8.76964 
0.63900 10.39943 5.27759 
4.02782 7.45560 5.01850 
1.49895 0.12813 1.35387 
1.72385 10.05304 7.58921 
8.24498 10.28471 4.29862 
5.54189 0.71745 10.25067 
2.75711 10.52990 3.36188 
0.91648 1.02634 3.47630 
2.56531 0.56965 5.60353 

-0.145588 0.389887 -0.131293 
0.345918 -0.381717 0.181406 
0.482225 0.000714 -0.119813 
-0.601054 0.109175 -0.515063 
0.205937 -0.236102 -0.477737 
-0.344369 0.433551 0.752797 
1.322198 0.282154 1.093707 
-0.116721 0.034554 0.598185 
-1.069096 0.978753 0.027449 
-0.472826 0.367453 -0.383844 
0.685721 -0.320321 0.293551 
-0.123278 0.587961 0.188257 
0.560643 0.284415 1.335129 
-1.135314 -1.011449 -0.682632 
-0.562939 -0.407131 0.648992 
0.345508 0.529750 -1.109312 
0.101880 0.640622 0.275288 
0.320373 -0.260923 0.764369 
0.214723 -0.014027 -0.198175 
-0.418068 0.215265 0.188212 
0.058407 -0.620082 -0.302504 
0.309822 -0.455000 0.129063 
-0.370017 0.826464 -0.664847 
0.236942 0.658950 0.683609 
0.520210 0.077770 -0.333021 
-1.761988 0.502576 0.010355 
-0.472374 0.048780 0.210969 
-0.011905 0.764356 -0.262253 
-0.207248 0.078402 0.139269 
0.254160 -0.034028 -0.354515 
-0.393012 -0.619919 -0.344329 
-0.122247 -0.099572 -0.068178 
0.812494 -0.633634 0.360185 
0.137918 -0.214374 -0.244903 
-0.307432 -0.099793 0.816360 
0.458468 0.113955 1.089384 
0.027546 -0.621037 -0.653882 
0.148227 0.617900 -0.647579 
-0.046283 0.151484 0.807616 
-0.452931 -0.800897 -0.015707 
0.010863 0.218568 0.341319 
-0.141661 -0.077123 -0.092888 
0.888266 0.023202 -0.539881 
0.019970 -0.120759 0.529157 
-0.306733 -0.115380 0.634783 
0.038877 0.365700 0.675959 
-0.779750 -0.189272 -1.055388 
0.005097 -0.799461 0.492569 
1.626136 -0.962252 -0.121585 
0.376408 -0.037658 0.123115 
-0.145012 -0.523200 0.274486 
-1.260656 -0.226353 -0.375038 
-0.457471 0.379695 0.607468 
0.329752 -0.492486 0.162340 
0.481385 0.194505 -0.504564 
-0.291603 0.091711 0.415357 
-0.250831 -0.002017 0.339787 
-0.064835 0.200458 0.129162 
-0.576485 0.556938 -0.331822 
0.100912 0.118251 -0.129497 
-1.034039 0.138864 0.242320 
0.122545 -0.228648 -0.084885 
0.783420 -0.368453 0.675384 
-0.357594 -0.477781 -0.513699 
-0.320702 0.382168 -0.912326 
-0.263351 0.069741 0.480716 
-0.649123 0.599040 0.509153 
-0.251734 -0.095348 0.063886 
1.060719 -0.483533 -0.262003 
0.581860 0.170343 -0.363288 
0.229551 -0.139744 -0.000724 
-0.166860 0.505402 -0.243926 
-0.176874 -0.000207 0.189744 
0.446443 0.154131 0.379594 
0.095635 0.012054 -0.714492 
-0.847205 0.132345 -0.446237 
0.223788 0.217212 0.381309 
-0.140731 -0.359411 -0.234812 
-0.406617 -0.531942 -1.400459 
0.321701 -0.188419 0.004462 
0.228950 0.203300 -0.391569 
-0.123375 -0.094616 -0.341209 
0.585953 -1.680316 -1.718018 
1.077611 0.447116 0.333282 
-0.344432 -0.419375 0.478653 
0.398069 0.004799 0.171392 
-0.060639 -0.915680 0.091668 
-0.105934 0.415784 -0.882510 
-0.132488 0.182564 0.365257 
-0.024220 -0.180143 0.088816 
0.140081 -0.178498 -0.118810 
0.587687 -0.432422 -0.232053 
0.280470 1.106414 -0.248979 
-0.282748 0.419886 -0.137139 
-0.354899 0.274338 0.367801 
-0.050059 -0.564801 -0.211881 
0.193757 0.597200 -0.512494 
0.064516 -0.034163 0.058483 
0.080738 0.225383 0.594939 
0.572597 0.647463 -0.164760 

-0.09319366875 -0.0864832625 -0.07904708125 -0.001521775 0.0024088125 -0.00799579375 

2