111 1 Fe 26 -777.06792876 46.74321103999989 46.74321103999989
1.00000000 
    11.3365200000000002    0.0000000000000000    0.0000000000000000
     0.0000000000000000   11.3365200000000002    0.0000000000000000
     0.0000000000000000    0.0000000000000000   11.3365200000000002
100
Cartesian 
0.33509 10.15612 2.67690 
5.65312 9.19670 6.36831 
3.67885 7.36031 7.47882 
10.42829 11.29127 11.11388 
10.61778 4.59358 2.57203 
11.14445 0.93734 8.68470 
7.08546 10.02154 1.91025 
8.27935 7.73843 10.56878 
5.21523 0.26448 1.14501 
2.84024 0.64453 9.02034 
1.85189 8.80448 1.14132 
3.65112 3.13172 5.05473 
6.23807 3.20593 1.16384 
4.06403 6.61624 2.43658 
6.52618 5.46779 2.30287 
7.60397 2.98280 9.78821 
3.65723 2.43339 0.02647 
3.36086 10.53141 11.05541 
4.79234 0.33568 7.62074 
5.82895 7.60829 9.37890 
1.55898 6.57991 10.95281 
7.97248 1.11913 0.54903 
0.00489 7.30044 2.13401 
7.00926 0.80650 3.13025 
9.06184 8.49554 2.12642 
3.49576 3.91753 2.68139 
5.15076 5.13103 4.41316 
1.79503 2.92555 7.76998 
11.04832 4.42379 0.25145 
1.76262 5.67631 1.94671 
3.46674 1.42998 2.82096 
6.31561 7.59909 0.91425 
9.46481 1.56260 7.14916 
8.08059 3.62257 3.20248 
9.95557 10.53023 7.05059 
1.17620 3.56659 4.09208 
3.15570 9.69449 5.74011 
3.91742 4.96156 0.27719 
8.34293 10.10537 11.19176 
3.42660 4.86609 6.81690 
5.97844 5.23035 8.42572 
10.81477 8.13262 7.07938 
0.31645 6.17923 4.10627 
9.05749 6.25109 3.50219 
10.23218 9.58880 9.31182 
10.10595 5.68245 6.48425 
9.58890 0.60493 4.31501 
2.62157 5.54120 4.38645 
5.67505 2.82300 3.56265 
8.70063 0.57059 9.23663 
10.66559 8.66116 0.12140 
9.72306 3.27726 4.78329 
1.43315 8.11513 9.08437 
8.86365 6.03141 0.95921 
7.53972 11.11570 6.32436 
2.02552 8.09108 3.52951 
9.45003 10.96888 2.18849 
1.12070 1.61812 10.71428 
0.29649 1.89368 5.99965 
7.67629 5.28378 5.27704 
8.75430 5.01084 9.95920 
1.63210 2.74097 1.58094 
6.13052 6.62027 6.57771 
10.08085 2.06820 2.22066 
6.50012 5.36510 10.68980 
7.71626 1.94919 5.45814 
6.55286 1.90711 7.92461 
10.48018 8.61552 4.59318 
11.03912 3.67879 8.20962 
4.01723 9.49798 8.55347 
8.34456 3.94535 7.43578 
3.58643 5.98079 9.28967 
10.42662 6.88869 9.47827 
5.87783 3.90845 6.18008 
4.71937 3.27522 9.27431 
1.85480 3.87476 10.14674 
5.37655 0.97355 5.37783 
5.30069 9.70854 3.84118 
1.22480 10.48705 10.24188 
8.70696 3.60850 0.76839 
10.18540 2.36751 10.22606 
1.52603 7.38795 5.87955 
5.77691 9.49217 10.62151 
7.00221 7.80018 3.81966 
4.39591 9.05906 1.66217 
0.91622 4.71867 6.20584 
8.28720 6.55400 8.17732 
8.36952 7.98940 5.80314 
3.69077 7.98898 10.78119 
1.27910 5.88847 8.28096 
6.71941 10.35338 8.36772 
0.83693 10.39032 5.29593 
4.43660 7.43573 4.88220 
1.70154 0.28899 1.34646 
1.30387 10.46075 7.64850 
8.27834 9.84903 4.26737 
5.79648 1.11192 9.93764 
2.73275 10.67367 3.40393 
0.90310 1.11385 3.62880 
2.71729 0.79671 5.49273 

-0.253668 -1.013569 0.362764 
0.083053 -0.160671 -0.027100 
0.157393 0.599499 -0.804807 
0.103080 0.770526 0.790508 
-0.021310 -0.308923 0.047758 
1.254639 -0.777588 -0.375167 
-1.033439 -0.589626 0.009803 
-0.039152 -0.038056 -0.203835 
0.190378 0.144367 0.238930 
-0.160275 0.648556 0.490477 
0.035245 0.097565 -0.409845 
-0.508136 -0.232384 0.292565 
-0.523655 -0.454440 -0.577531 
0.309384 0.089330 -0.223498 
0.007619 -0.165408 -0.101210 
-0.384794 -0.420145 0.638411 
-0.041499 -0.680604 0.331575 
1.012534 0.600261 0.213944 
-0.417096 -0.570865 -0.443637 
0.059932 -0.911945 -0.737820 
-0.200325 -0.342066 0.094451 
0.043660 0.247829 -0.047652 
-0.957393 0.353365 -0.701958 
0.279605 0.004600 -0.041574 
-0.201222 -0.206981 -0.254484 
0.805299 0.516100 -0.765387 
-0.051476 0.688367 -0.648322 
0.894229 -0.483383 0.015443 
0.359541 0.281630 -0.533576 
-0.013532 -0.739768 0.118374 
0.662574 0.859709 0.324589 
0.095317 0.212736 -0.173645 
-0.709806 0.921136 -0.310606 
-0.276699 0.134377 -0.325408 
0.202369 0.002464 -0.878935 
0.115161 -0.394388 -0.800565 
0.527542 -0.300832 0.431761 
-0.022296 0.058568 0.263488 
-0.380275 -0.090422 -0.437290 
0.471547 0.801106 0.230199 
0.082122 -0.852828 -0.300137 
-0.050364 0.120834 0.431137 
-0.567746 -0.544133 1.108010 
-0.004275 0.215021 0.070867 
0.070963 -0.060092 -0.641771 
-0.605786 0.541832 0.159339 
0.617173 0.516757 1.252245 
0.618612 0.545671 0.261027 
0.268834 0.209072 0.383474 
-1.006846 -0.374815 0.136961 
0.259185 -0.084276 0.213234 
1.340443 0.162025 0.737627 
0.111987 0.694016 0.028000 
0.181979 0.339097 0.300872 
-0.139992 -0.000980 -0.259238 
0.222013 0.273785 0.215415 
-0.486643 0.045850 -0.866213 
0.046582 0.182761 -0.224858 
0.141614 -0.278557 0.143123 
0.363555 -0.337649 -0.259886 
0.944044 0.133838 -0.229598 
-0.613378 1.007271 -0.276175 
-0.291827 0.709688 -0.628823 
0.508729 -0.081988 -0.253380 
-0.186725 0.099477 1.324915 
-0.553208 1.301373 -0.535902 
0.917741 0.246411 -1.541723 
0.290657 -0.338188 -0.391969 
-0.975511 0.160991 0.003055 
-0.108341 0.613469 0.419976 
0.061811 -0.037200 -0.020250 
0.233851 -0.989709 0.766791 
0.371031 -0.103322 0.049688 
-0.034778 -1.345360 0.971343 
-0.277037 0.185725 0.286332 
0.356380 0.660193 -0.075225 
-0.153833 -0.031563 -0.489455 
0.156782 0.656038 0.290589 
-0.449735 -0.841438 -0.448910 
-0.211856 -0.060348 -0.514008 
-1.223785 0.679015 0.734195 
0.379574 -0.037512 0.591061 
0.122546 1.047645 1.065320 
-0.867764 -0.730436 -0.482858 
-0.007288 0.282350 0.027236 
0.540025 -0.355419 -0.228686 
-0.091246 0.375832 -0.654396 
0.175231 -0.373939 0.956821 
0.143582 -0.118326 0.161455 
-0.247626 -0.321566 -0.185967 
0.171161 -0.431978 1.039341 
-0.616166 -0.144872 -0.557304 
-0.716343 0.364647 0.016024 
0.253985 -0.218337 -0.256457 
-0.084435 -0.428076 0.092368 
-0.271136 0.385180 -0.269840 
-0.280575 -0.900675 0.988921 
0.391526 -1.461048 0.027277 
-0.546446 -0.000083 -0.077010 
-0.146891 -0.021179 0.344813 

-0.0926645375 -0.0872084375 -0.08139328125 -0.0032765375 0.00083939375 0.001672925 

2