111 1 Fe 26 -776.69759318 47.11354661999985 47.11354661999985
1.00000000 
    11.3365200000000002    0.0000000000000000    0.0000000000000000
     0.0000000000000000   11.3365200000000002    0.0000000000000000
     0.0000000000000000    0.0000000000000000   11.3365200000000002
100
Cartesian 
0.30771 10.10800 2.77867 
5.60575 9.17794 6.34447 
3.62942 7.31947 7.57787 
10.41636 11.33315 11.16788 
10.66374 4.67825 2.49708 
11.13358 0.83921 8.64452 
7.17773 10.00563 2.00959 
8.33184 7.79802 10.45949 
5.10836 0.31567 1.11939 
2.81886 0.61798 9.10327 
1.80587 8.78918 1.17346 
3.47950 3.08080 4.98533 
6.14297 3.19436 1.08105 
4.23065 6.76116 2.51433 
6.58245 5.52340 2.17799 
7.65938 2.95049 9.82011 
3.64071 2.32913 0.14564 
3.35102 10.40081 11.18272 
4.77041 0.30953 7.57584 
5.91797 7.56185 9.36049 
1.56520 6.68664 10.93894 
7.99342 0.97185 0.54559 
11.25750 7.42522 2.11503 
6.94732 0.78180 3.08005 
9.10465 8.48656 2.19480 
3.62357 3.98375 2.62275 
5.14971 5.22805 4.30161 
1.64965 2.89811 7.94264 
11.08174 4.34197 0.21958 
1.70078 5.61273 1.97829 
3.54046 1.42416 2.78262 
6.23879 7.72588 0.84295 
9.48032 1.57413 7.11531 
8.13740 3.67142 3.27532 
9.91793 10.49102 6.96973 
1.22778 3.53385 4.06968 
3.13302 9.66063 5.75303 
3.91703 4.93963 0.22522 
8.27414 10.16867 11.04583 
3.41230 4.88419 6.71018 
5.96466 5.25695 8.42061 
10.88804 8.10621 7.08473 
0.30896 6.15650 4.14406 
8.91780 6.23196 3.46595 
10.30140 9.67639 9.35809 
10.05047 5.67171 6.50683 
9.65168 0.60753 4.35049 
2.66617 5.44302 4.35713 
5.73697 2.70401 3.64707 
8.69987 0.61480 9.24723 
10.63157 8.69076 0.17795 
9.84193 3.32665 4.81855 
1.45340 8.19348 9.10211 
8.80547 6.17992 0.88366 
7.51003 11.06533 6.38880 
2.14105 8.12913 3.51862 
9.41080 10.93347 2.16726 
1.10963 1.47939 10.60732 
0.26358 1.82249 6.04095 
7.63007 5.33414 5.34152 
8.88786 4.92880 9.89906 
1.65570 2.95233 1.48796 
6.11195 6.69719 6.43554 
10.15717 2.21757 2.24820 
6.52781 5.30712 10.72635 
7.57933 1.87423 5.43161 
6.57010 1.92767 7.83528 
10.41052 8.64511 4.62633 
11.04194 3.69802 8.22226 
3.98586 9.58061 8.59690 
8.19595 3.90360 7.50628 
3.59178 5.89534 9.35294 
10.46765 6.98065 9.42236 
5.91104 3.86380 6.21360 
4.75958 3.22695 9.33164 
1.97226 3.76303 10.15081 
5.27657 0.95443 5.48309 
5.28383 9.72072 3.77891 
1.15441 10.28841 10.08178 
8.70242 3.68905 0.76868 
10.22103 2.33544 10.28962 
1.51799 7.33127 5.81464 
5.81162 9.50965 10.64542 
6.96993 7.82081 3.84104 
4.26104 9.02803 1.70293 
0.94463 4.75062 6.28626 
8.44284 6.65815 8.09929 
8.34797 8.01275 5.66436 
3.82865 8.01733 10.83826 
1.39367 5.92430 8.32574 
6.63796 10.33669 8.47772 
0.79381 10.43071 5.31525 
4.27110 7.55066 4.97016 
1.61956 0.28394 1.27211 
1.43755 10.34497 7.64711 
8.37674 9.95602 4.27914 
5.71896 1.08679 10.00429 
2.82724 10.61487 3.39913 
0.91570 1.06606 3.61050 
2.72224 0.74055 5.48109 

-0.196824 -0.675877 -0.013895 
0.218385 0.128865 0.121873 
0.345844 0.795204 -0.875258 
0.288383 0.422938 0.523886 
-0.181674 -0.377720 0.335882 
0.985315 -0.483074 -0.284187 
-1.342487 -0.576338 -0.702033 
-0.260001 -0.137179 -0.016620 
0.493519 -0.057354 0.298515 
0.199184 0.543408 0.267482 
-0.090397 0.163466 -0.569370 
0.437755 -0.078746 0.258540 
-0.306833 -0.414588 -0.274080 
-0.133575 -0.580632 -0.242362 
-0.048474 -0.409824 0.041147 
-0.694992 -0.468579 0.664537 
0.121535 -0.648739 -0.027142 
0.305490 1.124702 -0.367556 
-0.519240 -0.496105 0.364408 
-0.095561 -0.325072 -0.513562 
-0.113867 -0.553291 0.344217 
-0.147879 1.226966 0.068796 
-0.048710 -0.716167 0.242731 
0.474387 -0.162732 0.044073 
-0.566015 -0.090383 -0.138144 
0.556197 0.175632 -0.642660 
0.341696 0.123505 0.150262 
2.019441 -1.023220 -0.524724 
0.415880 0.415939 -0.539875 
0.322890 -0.018650 -0.002144 
0.063495 0.892168 0.348493 
0.570731 -0.395969 0.126397 
-1.053076 0.697826 -0.330001 
-0.489333 0.033046 -0.437307 
0.323987 0.088354 -0.661466 
-0.470263 -0.247150 -0.778520 
0.504245 -0.116362 0.383681 
0.092331 -0.064250 0.610072 
-0.266729 -0.528502 -0.005452 
0.696576 0.754097 0.375614 
0.198032 -0.613199 -0.658773 
-0.272361 0.229484 0.332895 
-0.571400 -0.271739 0.479009 
0.401054 0.132900 -0.238257 
-0.380552 -0.380628 -1.108251 
-0.208276 0.380820 -0.090410 
0.667868 0.786483 0.971968 
0.198455 1.208053 0.167669 
-0.327833 0.932902 0.260787 
-0.999358 -0.442738 -0.036051 
0.252027 0.212072 -0.166130 
0.829195 -0.016301 0.688861 
0.284501 -0.208562 -0.346206 
0.387676 -0.046345 0.188872 
-0.216156 0.123635 -0.180550 
-0.257919 -0.169159 0.245090 
0.247728 0.503982 -0.715480 
0.191540 0.624064 0.129042 
0.446145 -0.131325 -0.045406 
0.641358 -0.626539 -0.440815 
0.457506 0.704262 -0.247073 
-0.608188 0.115625 -0.057852 
-0.429635 0.490840 0.291977 
0.323485 -0.516783 -0.196574 
0.102061 0.061652 0.922794 
0.318744 1.258688 -0.562278 
0.449212 -0.127707 -0.627434 
0.839779 -0.354787 -0.462797 
-2.096413 0.569808 0.261729 
-0.210446 0.134850 0.367891 
0.343774 0.125076 -0.307493 
0.409616 -0.657038 0.573637 
0.405941 -0.316215 0.257642 
-0.586002 -0.857950 0.215163 
-0.268280 0.358003 0.356663 
0.352875 0.748482 0.337132 
0.163406 0.200072 -1.270544 
0.049447 0.544506 0.500563 
0.295906 0.475829 0.889233 
-0.314694 -0.091010 -0.271326 
-1.155729 0.581268 0.296064 
0.668376 0.136493 0.857004 
-0.101596 0.987285 0.835512 
-1.130567 -0.635968 -0.754883 
0.462831 0.623009 0.083328 
0.270255 -0.624975 -0.667253 
-0.625362 0.015261 -0.401354 
0.161444 -0.569809 1.678742 
-0.392382 -0.716907 -0.440538 
-0.645399 -0.488418 -0.187557 
0.320719 -0.264391 0.573501 
-0.467750 -0.255162 -0.467006 
-0.385702 -0.356118 -0.177571 
0.355716 -0.213544 0.413402 
-0.255362 -0.173522 -0.072075 
-0.812430 0.233369 0.009074 
0.088820 -0.757798 0.474014 
-0.119532 -0.834757 -0.230088 
-0.291344 0.302616 -0.167712 
-0.205931 -0.021601 0.311897 

-0.09102510625 -0.085772275 -0.08041393749999999 -0.002481225 0.0008538999999999999 -0.0011210125 

2