111 1 Fe 26 -776.84612136 46.96501843999988 46.96501843999988
1.00000000 
    11.3365200000000002    0.0000000000000000    0.0000000000000000
     0.0000000000000000   11.3365200000000002    0.0000000000000000
     0.0000000000000000    0.0000000000000000   11.3365200000000002
100
Cartesian 
0.11730 9.75635 2.68222 
5.65796 9.43870 6.51236 
3.99134 7.71379 7.71711 
10.40709 0.12032 11.12038 
10.54059 4.78506 2.23642 
11.33116 0.36433 8.38540 
6.71172 9.77238 1.89041 
8.32687 7.92861 10.01339 
5.25430 0.23131 1.79223 
3.13752 0.87330 9.43468 
1.70243 8.81229 0.96893 
3.30937 3.14677 5.06615 
5.66995 2.67740 0.74203 
4.38534 6.74169 2.36854 
6.57438 5.26753 1.99116 
7.19935 2.84866 10.01415 
3.37575 1.78871 0.31180 
3.33358 10.79739 11.25614 
4.49638 0.03144 7.44332 
5.99361 7.58798 8.93789 
1.55206 6.41817 11.13570 
7.81901 1.38533 0.61896 
11.08360 7.13380 2.33032 
7.12485 0.79238 3.12332 
8.72743 8.58193 2.53315 
4.14324 4.14788 2.68112 
5.47950 5.27322 4.57581 
1.77827 2.32953 8.10428 
11.25015 4.63870 10.80293 
1.90959 5.91314 2.09496 
3.50710 1.74255 3.05364 
6.60228 7.44053 0.66791 
9.10667 1.82801 6.98458 
8.31951 3.69963 3.25968 
9.83625 10.51491 6.30423 
1.09430 3.69578 3.45842 
3.38600 9.69955 5.82034 
4.21297 5.00361 0.40804 
8.25021 10.23310 11.00226 
3.85674 5.51265 6.65022 
5.97711 5.08606 8.07856 
10.93281 8.14548 7.15129 
0.16132 5.90054 4.47015 
8.73087 6.18538 3.21753 
9.82222 9.59625 8.83971 
10.12395 5.77009 6.45481 
10.01301 1.00724 4.73071 
2.71418 5.55648 4.27120 
5.82693 3.13041 3.69806 
8.41778 0.55600 9.06532 
10.49466 9.10964 0.22560 
10.39435 3.62771 5.27641 
1.90150 7.77490 8.97433 
9.11323 6.61987 0.64720 
7.34019 11.19580 6.42650 
1.82449 7.94547 3.51300 
9.34328 11.09639 2.13534 
0.88222 1.89190 10.64323 
0.56378 1.60764 6.29129 
7.76772 5.09441 5.45622 
9.12339 5.30679 9.77852 
1.65409 3.28240 1.19237 
6.05030 6.78715 6.43430 
10.57844 2.28439 1.99642 
6.66289 5.21551 10.69256 
7.74764 2.23123 5.11624 
6.52024 1.52430 7.86564 
10.55845 8.19006 4.64526 
10.60920 3.64727 8.02760 
3.88963 9.54553 9.26743 
8.13059 3.93615 7.57416 
3.99914 5.57417 9.22330 
10.88643 7.03990 9.53870 
5.41032 3.44106 6.13036 
4.89263 3.17636 9.86087 
2.47398 3.76478 10.25598 
5.06032 0.88116 4.96480 
5.37797 10.17070 4.10693 
1.14430 10.36697 10.40581 
8.51036 4.04737 0.83102 
9.65511 2.49046 10.44209 
1.76306 7.06198 6.40282 
5.53985 9.82824 11.21050 
6.32661 7.74082 3.69876 
4.31315 9.16111 1.73546 
1.30098 4.12907 6.03626 
8.30747 7.05329 7.86525 
8.19718 8.04766 5.66128 
3.96653 7.59182 10.70946 
1.35881 5.38389 8.30840 
6.62057 10.06612 8.72147 
0.73591 10.30961 5.25882 
4.17398 7.46408 4.92880 
1.45260 0.12464 1.41981 
1.68132 10.08444 7.63573 
8.14618 10.24611 4.25764 
5.54559 0.70718 10.18448 
2.62708 10.62697 3.38743 
0.94623 1.05444 3.51742 
2.57464 0.63458 5.62624 

-0.271061 0.062818 0.468375 
0.510614 -0.815196 -0.108483 
-0.490599 -0.112904 -0.631948 
-0.316522 0.722279 -0.118494 
0.619611 -0.324844 -0.334391 
-0.527415 0.491494 0.729457 
1.360718 0.158449 0.819035 
-0.326085 0.264289 0.818992 
-1.234093 0.926921 -0.431778 
-0.356672 0.012028 -0.526350 
0.378770 -0.406987 0.226647 
0.100943 -0.002911 -0.609555 
0.392283 0.738344 1.107213 
-0.169901 -0.312463 0.140564 
-0.360220 -0.111454 0.251170 
1.089221 0.273302 -0.608858 
0.467282 0.763244 0.456142 
0.224788 -0.872735 0.967875 
0.125016 0.054945 0.158624 
0.305834 -0.006937 0.854247 
0.308152 -0.053651 -0.803052 
0.558775 -0.540847 0.056759 
-0.252402 1.133331 -0.715913 
0.255681 0.450238 0.324894 
0.749889 -0.411526 -0.438185 
-1.751383 0.442349 -0.911447 
-0.823201 0.786144 -0.794976 
0.086600 0.904615 0.090991 
-0.228590 -0.543999 0.275925 
-0.050833 -0.731102 -0.129387 
-0.194685 -0.208081 -0.440203 
-0.429878 0.302701 0.317893 
0.794503 -0.724341 0.326484 
0.241992 -0.200921 -0.200385 
0.147599 -0.095459 0.570352 
0.507337 -0.390481 1.073487 
-0.651836 -0.195583 -0.316362 
0.081147 0.050337 -0.254708 
-0.668711 -0.035819 0.242395 
-0.841622 -0.945067 -0.204518 
0.535084 -0.377803 0.492871 
0.051623 -0.068067 0.015121 
0.565206 -0.050353 -0.577012 
-0.175903 0.042426 0.443625 
0.015128 0.312104 0.648783 
0.016615 0.283057 0.598706 
-0.655825 -0.247529 -0.875570 
0.343367 -0.085164 0.744238 
1.075815 -1.546157 0.023405 
0.244933 -0.088862 0.462435 
0.080653 -0.729641 0.302346 
-1.080797 -0.442791 -0.328940 
-0.310626 0.305756 0.196655 
0.063770 -0.469065 0.072424 
0.269697 0.223583 -0.409766 
0.188981 0.347559 0.756118 
-0.029643 0.058483 -0.207432 
-0.382575 -0.443592 -0.214616 
-1.287957 0.157827 -0.705488 
0.325189 0.242834 -0.171399 
-0.620115 -0.437126 -0.278445 
-0.318827 0.490679 0.331825 
0.523129 0.489557 -0.223043 
-0.250105 -0.301234 -0.531014 
-0.287384 0.287278 -0.052021 
-0.619011 0.153571 0.687077 
-0.246705 0.739364 0.174442 
-0.221886 0.325048 -0.034080 
0.790117 -0.184322 0.183967 
0.182918 0.796523 -0.512891 
0.127878 0.011495 0.165383 
-0.686279 0.129969 0.474197 
-0.249847 0.031268 -0.005551 
1.077846 -0.195929 0.941349 
-0.594239 0.246857 -0.799816 
-0.378636 0.370638 -0.551301 
0.123987 1.213910 0.584227 
0.003244 -1.316904 -0.756609 
-0.117443 -0.476604 -1.192704 
0.007372 -0.106585 -0.600872 
0.360472 0.193744 -0.348666 
-0.006718 -0.075652 -0.693052 
0.967306 -1.096878 -1.579637 
0.612919 -0.007486 -0.196319 
-0.627241 -0.420243 0.755929 
-0.308383 0.782423 0.708031 
0.225557 -0.790159 -0.453261 
0.061469 0.218493 -0.341707 
0.050449 0.028865 0.643021 
-0.066872 0.255464 0.357131 
0.206854 0.031797 0.238433 
0.050489 -0.332352 -0.084112 
-0.290374 0.681191 0.084684 
-0.433720 0.548252 -0.967958 
0.197062 -0.066127 -0.059208 
0.086383 -0.457789 0.105709 
0.233701 0.042415 0.160966 
0.770896 -0.644765 0.025725 
-0.186989 0.595894 0.747345 
0.636925 0.326431 -0.072462 

-0.0907403625 -0.08802789375 -0.0838372375 0.0010220625 0.00301595 -0.00894301875 

2