111 1 Fe 26 -776.07629832 47.734841479999886 47.734841479999886
1.00000000 
    11.3365200000000002    0.0000000000000000    0.0000000000000000
     0.0000000000000000   11.3365200000000002    0.0000000000000000
     0.0000000000000000    0.0000000000000000   11.3365200000000002
100
Cartesian 
0.34149 10.10158 2.56704 
5.73685 9.20488 6.39936 
3.77012 7.48449 7.24831 
10.45330 11.32268 11.12188 
10.54373 4.42710 2.67998 
11.29357 1.00015 8.70762 
6.84545 9.96483 1.78170 
8.19685 7.64247 10.70299 
5.38715 0.22020 1.20979 
2.84761 0.77116 8.95304 
1.92259 8.83795 1.04677 
3.82893 3.17096 5.19665 
6.30949 3.16769 1.20802 
3.87633 6.42775 2.30285 
6.44060 5.36858 2.47293 
7.47425 2.98520 9.81652 
3.67312 2.50186 11.23166 
3.50598 10.79290 10.89051 
4.78240 0.30818 7.62806 
5.70548 7.57609 9.32182 
1.52250 6.38601 10.98009 
7.94488 1.34836 0.54756 
0.00831 7.16119 2.07547 
7.13701 0.84387 3.19974 
8.97325 8.47984 1.99475 
3.40950 3.88599 2.68167 
5.14538 5.08433 4.50031 
2.12652 2.90583 7.50852 
11.04111 4.58238 0.23319 
1.82836 5.66975 1.91887 
3.43662 1.53073 2.92854 
6.43973 7.43779 1.00103 
9.36606 1.65262 7.17350 
7.98009 3.56075 3.06049 
10.03096 10.59576 7.05793 
1.12024 3.57071 4.02301 
3.25136 9.71082 5.77402 
3.91522 4.99766 0.37592 
8.40462 9.99955 0.00888 
3.50402 4.93434 7.00101 
6.01090 5.07553 8.40880 
10.70761 8.18299 7.12213 
0.26435 6.14136 4.18176 
9.25896 6.31166 3.57161 
10.13470 9.45625 9.17921 
10.11961 5.76520 6.46959 
9.56775 0.65713 4.41213 
2.63274 5.73904 4.46361 
5.61729 3.01044 3.48368 
8.59304 0.46587 9.23770 
10.74824 8.60763 0.06077 
9.72380 3.23613 4.81185 
1.41179 8.07571 9.05917 
8.97025 5.85888 1.11019 
7.56559 11.19470 6.19552 
1.87757 8.07295 3.57005 
9.43617 11.00986 2.12559 
1.13745 1.84679 10.83803 
0.36058 1.96252 5.96250 
7.77684 5.16961 5.15559 
8.66885 5.13452 10.02609 
1.51816 2.56455 1.68967 
6.12296 6.59193 6.69829 
10.03428 1.85123 2.14782 
6.43108 5.46467 10.79257 
7.83052 2.21473 5.43448 
6.63703 1.90376 7.86863 
10.61330 8.52783 4.49521 
10.92201 3.67347 8.18682 
4.05153 9.45080 8.54515 
8.56955 4.00324 7.33039 
3.60644 5.99454 9.27547 
10.41680 6.74100 9.56742 
5.83965 3.80878 6.25783 
4.62400 3.36180 9.21703 
1.72363 4.11953 10.12951 
5.50356 0.99557 5.16319 
5.34674 9.77401 3.96836 
1.27016 10.68209 10.42737 
8.69195 3.49555 0.70779 
9.98813 2.48752 10.21212 
1.57697 7.46850 6.04552 
5.74300 9.58548 10.70529 
6.95048 7.67856 3.73455 
4.58530 9.14012 1.60365 
0.94033 4.62874 6.06906 
8.04933 6.45210 8.21294 
8.41750 7.91500 6.11353 
3.50938 7.93952 10.71743 
1.08101 5.80136 8.19235 
6.86144 10.32306 8.33009 
0.83063 10.31399 5.20226 
4.59598 7.32281 4.75399 
1.85717 0.26627 1.41300 
1.10207 10.57754 7.66056 
8.10325 9.73154 4.21670 
5.87453 1.04042 9.95678 
2.64956 10.59090 3.42143 
0.81520 1.17116 3.64824 
2.68822 0.87895 5.55086 

-0.320149 -0.780042 0.286835 
0.114842 -0.177060 -0.166315 
-0.077814 -0.109673 0.215563 
-0.261277 0.634924 0.246483 
-0.014546 -0.056359 -0.652786 
-0.190944 -0.050134 0.145133 
1.155047 -0.817330 1.199624 
0.235499 -0.037594 -0.510619 
-0.797385 1.126340 -0.034846 
-0.383825 0.749855 0.300732 
-0.175953 -0.046857 0.064688 
-1.542908 -0.548560 0.061597 
-0.891379 -0.273183 -0.928526 
1.664756 1.383831 0.482895 
-0.038300 0.293475 -0.534727 
-0.182118 -0.046687 0.200899 
-0.274660 -0.734271 0.754592 
0.834691 -0.219429 0.349709 
0.112336 -0.208228 -0.779101 
0.309244 -0.311898 -0.239369 
-0.192308 0.615678 -0.215065 
-0.018422 -1.546629 -0.147495 
-1.014281 0.704000 -0.572974 
0.128400 -0.003356 -0.106471 
0.041830 -0.432030 0.045056 
0.999702 0.692402 -0.229390 
-0.069087 1.008399 -0.397328 
0.043874 -0.165829 0.231352 
0.025640 0.059214 -0.332048 
-1.517973 -1.228419 0.436942 
0.425521 -0.155085 0.544448 
-0.325529 0.517226 -0.152281 
0.162285 0.259363 0.214515 
0.856361 -0.166392 0.216104 
-0.282995 0.280281 -0.926662 
0.672057 -0.083898 -0.620054 
0.149981 -0.175188 0.298795 
-0.037609 -0.225086 -0.600016 
-0.179932 0.191734 -1.041017 
0.173577 0.295137 -0.297184 
0.260320 -0.782625 0.410950 
0.545420 -0.185186 0.123472 
0.086866 -0.601346 0.474703 
-0.621073 0.399913 0.390784 
0.100737 0.470743 0.482769 
-0.311612 0.409111 0.107107 
0.276320 -0.071355 0.666776 
0.516300 -0.663616 0.151384 
0.461310 -0.968023 0.509799 
0.096924 0.252594 0.201264 
0.113240 -0.037229 0.174979 
1.784407 0.798341 0.187053 
-0.200313 0.474611 0.057485 
-0.198142 0.882120 0.096631 
-0.140676 0.112961 -0.042662 
0.244982 0.461799 0.002341 
-1.072339 -1.006601 0.022454 
-0.253512 -0.337203 -0.797919 
-0.152386 -0.499941 0.516590 
-0.484905 0.074966 0.238675 
0.676247 -0.803014 0.060105 
-0.405747 1.717863 -0.186994 
-0.217599 0.407083 -1.308537 
0.725680 1.026177 -0.167976 
-0.313087 -0.098647 0.571917 
-1.796122 0.289117 -0.264688 
0.510809 -0.006094 -1.061748 
-0.327466 -0.267743 -0.178572 
0.222467 0.062403 -0.290749 
-0.059790 0.564419 0.645361 
-0.603810 -0.035805 0.345582 
0.045877 -0.452644 0.123362 
0.551699 0.182379 -0.079050 
0.707394 -0.813155 0.847325 
-0.237984 -0.426880 -0.073734 
0.528214 -0.132795 -0.395840 
-0.491017 -0.183463 0.202262 
0.164777 0.577343 -0.043826 
-0.537532 -1.047857 -0.757018 
0.145068 1.018392 -0.063779 
-0.295283 -0.140226 0.124030 
-0.251588 -0.086016 0.021115 
0.357004 0.235514 0.094852 
-0.183872 -0.480351 0.016989 
-1.075394 -0.075156 0.068233 
0.455038 -0.088260 0.695191 
0.610416 0.735759 -0.507872 
-0.211462 0.096407 -0.363223 
0.770009 0.410875 0.337997 
0.305387 0.208894 -0.008183 
-0.154251 -0.494016 0.738551 
-0.223330 0.108495 -0.121082 
-0.753855 1.325335 0.241256 
0.151883 -0.186929 -0.826884 
0.635932 -0.727966 0.013021 
0.298690 0.241989 -0.235432 
-0.428184 -0.459164 0.507677 
0.897954 -0.684052 0.333948 
-0.379572 -0.818506 0.033109 
-0.181846 -0.096332 0.127164 

-0.08862943124999999 -0.08422405 -0.08542791875000001 -0.00252263125 -0.00059178125 0.0035627750000000002 

2