111 1 Fe 26 -775.48048690 48.330652899999905 48.330652899999905
1.00000000 
    11.3365200000000002    0.0000000000000000    0.0000000000000000
     0.0000000000000000   11.3365200000000002    0.0000000000000000
     0.0000000000000000    0.0000000000000000   11.3365200000000002
100
Cartesian 
0.23382 9.93467 2.92902 
5.56159 9.18071 6.32851 
3.60635 7.36443 7.63197 
10.43821 0.10729 11.30962 
10.70177 4.76460 2.42093 
11.23828 0.61019 8.53193 
7.12686 9.89312 2.05889 
8.37751 7.87628 10.27106 
5.02547 0.37452 1.13738 
2.83479 0.64727 9.26912 
1.71236 8.79014 1.14006 
3.28135 2.99123 4.91555 
5.93641 3.10347 0.90029 
4.48485 6.91498 2.60649 
6.66399 5.55107 1.98107 
7.63785 2.83976 9.96709 
3.62379 2.06631 0.32023 
3.36410 10.36079 11.31988 
4.66166 0.19966 7.55971 
6.04538 7.45879 9.25628 
1.56042 6.77540 10.97034 
7.99230 0.93135 0.55382 
11.13558 7.49461 2.13833 
6.91931 0.71870 3.00473 
9.06614 8.46534 2.30221 
3.91503 4.10786 2.44893 
5.20986 5.39591 4.16344 
1.65608 2.70963 8.14492 
11.19385 4.27952 0.07808 
1.65506 5.52239 2.03182 
3.65643 1.54000 2.78750 
6.21439 7.85003 0.75414 
9.35207 1.68984 7.01823 
8.17294 3.74846 3.33428 
9.90234 10.44685 6.73245 
1.22849 3.46455 3.90167 
3.16290 9.61403 5.83286 
3.94147 4.88617 0.24840 
8.13862 10.19757 10.80968 
3.49742 5.03267 6.59686 
5.97090 5.21020 8.32095 
10.96796 8.09729 7.13599 
0.21196 6.07714 4.27522 
8.75125 6.22209 3.36671 
10.32433 9.75670 9.26119 
9.94908 5.69861 6.51637 
9.85278 0.72799 4.54476 
2.75508 5.45712 4.32519 
5.77636 2.66295 3.80993 
8.56894 0.62577 9.25067 
10.60802 8.78884 0.23173 
10.15031 3.41310 4.97148 
1.54687 8.21251 9.05289 
8.77493 6.41772 0.78173 
7.42549 11.01194 6.47070 
2.27154 8.15450 3.52842 
9.38683 10.94867 2.04707 
1.10432 1.36705 10.46689 
0.28912 1.68244 6.11008 
7.64410 5.32112 5.39339 
9.16765 4.89421 9.76261 
1.60825 3.30480 1.33329 
6.02011 6.87987 6.25134 
10.33172 2.38404 2.26094 
6.59102 5.22139 10.89854 
7.42425 1.92590 5.30661 
6.65031 1.91580 7.63228 
10.42195 8.63382 4.61538 
10.78434 3.79961 8.27179 
3.90084 9.71436 8.73833 
8.01314 3.86301 7.57619 
3.66672 5.67490 9.50443 
10.59985 7.08012 9.37445 
5.86698 3.67980 6.28059 
4.79063 3.19655 9.48563 
2.22008 3.69003 10.21208 
5.13996 0.94832 5.45279 
5.27295 9.82414 3.76193 
1.09395 10.11539 10.01615 
8.64558 3.81660 0.73862 
10.11083 2.35627 10.42694 
1.60309 7.25599 5.84739 
5.83579 9.68714 10.80802 
6.74605 7.76423 3.77444 
4.11840 9.07071 1.77584 
1.02713 4.69792 6.31635 
8.58984 6.84318 7.92430 
8.32787 7.97830 5.66644 
3.99285 7.94935 10.85522 
1.48116 5.90225 8.37018 
6.55674 10.27410 8.72081 
0.66342 10.45918 5.28878 
3.97209 7.65525 5.07960 
1.53753 0.24022 1.21776 
1.62946 10.14000 7.62138 
8.41402 10.15552 4.30396 
5.60664 0.93573 10.17567 
2.94550 10.43533 3.36091 
0.89852 1.02890 3.55407 
2.69000 0.63974 5.50975 

0.069773 0.133354 -0.888919 
0.230800 0.585127 0.309791 
0.539550 0.375110 -0.032393 
0.100733 -0.470339 -0.696241 
-0.552358 -0.228816 0.200302 
-0.245165 0.263537 -0.207266 
-0.896536 -0.089569 -0.862509 
-0.274250 -0.199664 0.084286 
1.160862 -0.818755 0.916728 
0.867909 0.083773 -0.418199 
0.022526 0.171617 -0.341060 
1.021561 0.354372 0.473008 
0.020883 -0.509276 -0.012795 
-0.562872 -0.498507 -0.392698 
-0.261437 -0.433860 0.382009 
-0.781459 0.248497 -0.019170 
-0.400025 0.312851 -0.842992 
-0.361203 1.000473 -1.008310 
0.033104 0.187403 0.069983 
-0.409039 0.592748 -0.182954 
-0.006972 -0.715220 0.270874 
-0.464736 1.275551 0.052603 
0.697395 -1.388295 0.629633 
0.406805 0.100456 0.242803 
-0.843982 0.259285 0.183675 
-0.162420 -0.480966 0.657575 
0.496193 -0.751227 1.188943 
0.078245 -0.220899 -0.777189 
-0.228206 0.840372 -0.533144 
0.566792 0.991701 0.037844 
-0.589760 0.218820 0.682138 
0.889774 -1.250852 0.376219 
-0.322581 0.032758 0.179265 
0.075471 -0.327919 -0.274588 
0.124792 0.344572 -0.193351 
-0.560196 0.656411 -0.612941 
0.072703 0.818658 0.077836 
0.404673 -0.056841 0.812493 
0.710917 -0.121645 0.855978 
0.490387 0.539266 0.570907 
0.053096 -0.164873 -0.154577 
-0.312972 0.163961 -0.130503 
-0.107552 -0.031316 0.032309 
0.603724 0.059065 -0.126433 
-1.002450 -0.538762 -0.712607 
0.767706 -0.219074 -0.507791 
-0.089364 0.149565 0.013867 
-0.455436 0.521685 -0.149746 
-0.699852 1.246337 -0.713257 
0.116097 -0.188147 -0.373138 
-0.036431 0.432290 -0.450827 
-0.299585 0.099149 0.041284 
0.528213 -1.502432 -0.419666 
0.594774 -0.396078 0.059923 
-0.061352 0.492050 -0.178274 
-1.195167 -0.581372 -0.211914 
0.223981 0.227016 0.456247 
-0.453597 1.377100 0.956479 
0.597097 0.146817 0.170602 
0.164577 -0.425298 -0.012510 
-0.512621 0.602561 0.142858 
0.115163 -1.248355 0.364782 
0.069641 -0.664537 0.751378 
-0.060601 -0.645266 -0.294015 
0.040318 0.203488 -0.536637 
1.339914 0.288407 -0.047137 
-0.311269 -1.004479 1.172497 
0.364494 -0.586808 -0.037427 
0.157364 -0.292706 -0.279685 
-0.015664 -0.931685 0.569045 
0.894436 0.452372 -0.254263 
0.324093 0.485398 -1.067892 
0.128898 -0.520167 0.429328 
-0.824365 0.340836 -0.726898 
-0.028705 0.109960 0.282704 
-0.105296 0.460226 0.128586 
0.337015 -0.113038 -1.016499 
0.349511 0.290826 0.726806 
0.580584 1.864000 1.938847 
-0.206568 0.013419 0.260559 
-0.453874 0.009948 -0.403007 
0.102739 0.011343 0.944099 
-0.856622 0.348221 0.535137 
-0.486691 -0.108175 -0.054538 
0.972161 0.175116 -0.413812 
-0.022242 -0.776390 -0.668911 
-1.158549 0.109282 0.517254 
-0.100901 0.064572 0.430974 
-0.677494 -0.524938 -0.554612 
-0.609919 -0.670553 -0.281462 
0.434716 0.001005 -0.932800 
0.357122 -0.209282 0.140870 
1.405102 -1.400008 -0.585891 
0.295940 -0.189603 0.585926 
-0.331914 0.574075 -0.182016 
-0.621782 -0.416385 -0.039266 
0.310217 -0.112060 -0.381405 
-1.038532 1.120757 0.149010 
0.093031 0.138903 -0.051301 
-0.342950 0.057931 0.190957 

-0.08992301875000001 -0.0810517875 -0.076146025 -0.0033387187499999997 0.0011886874999999999 -0.0062956625 

2