111 1 Fe 26 -776.31630896 47.49483083999985 47.49483083999985
1.00000000 
    11.3365200000000002    0.0000000000000000    0.0000000000000000
     0.0000000000000000   11.3365200000000002    0.0000000000000000
     0.0000000000000000    0.0000000000000000   11.3365200000000002
100
Cartesian 
0.34390 10.12110 2.58129 
5.72206 9.20583 6.39549 
3.75499 7.46271 7.28781 
10.45060 11.30989 11.11540 
10.55631 4.45710 2.66612 
11.26399 0.99410 8.70472 
6.88425 9.98203 1.79441 
8.20950 7.65880 10.68492 
5.36221 0.22057 1.19816 
2.85033 0.74216 8.95999 
1.91129 8.83228 1.06402 
3.81263 3.16957 5.17034 
6.30545 3.17810 1.20970 
3.89519 6.44975 2.32338 
6.45511 5.38396 2.44803 
7.49787 2.98660 9.80721 
3.67266 2.49811 11.24702 
3.46958 10.74890 10.91399 
4.78481 0.31690 7.63501 
5.72386 7.58808 9.33649 
1.53114 6.41712 10.97708 
7.94909 1.31897 0.54883 
0.02027 7.17642 2.09417 
7.11398 0.83726 3.18920 
8.98843 8.48587 2.01803 
3.41362 3.88416 2.68664 
5.14792 5.08018 4.49383 
2.06802 2.91176 7.55048 
11.03999 4.55402 0.24097 
1.82701 5.68312 1.92035 
3.43439 1.51110 2.90502 
6.42095 7.45972 0.98880 
9.38386 1.63104 7.16869 
7.99232 3.57114 3.08398 
10.01917 10.58318 7.06707 
1.12425 3.57269 4.04280 
3.23200 9.71054 5.76443 
3.91611 4.99230 0.36215 
8.39667 10.01610 11.32915 
3.48835 4.91701 6.97075 
6.00442 5.11196 8.40930 
10.72207 8.17533 7.11185 
0.27569 6.15474 4.15919 
9.22965 6.29784 3.55669 
10.14955 9.47547 9.20029 
10.12241 5.74630 6.47011 
9.56681 0.64714 4.38546 
2.62368 5.70906 4.44814 
5.62192 2.98536 3.49248 
8.61479 0.48360 9.23567 
10.73250 8.61757 0.06833 
9.70568 3.23673 4.80325 
1.41625 8.07586 9.06268 
8.95282 5.88013 1.08242 
7.56280 11.18091 6.21908 
1.89904 8.07062 3.56236 
9.44898 11.00985 2.14020 
1.13649 1.80983 10.82374 
0.35052 1.95548 5.96444 
7.76215 5.18942 5.17495 
8.67349 5.11976 10.01556 
1.54312 2.57661 1.67406 
6.12637 6.58999 6.69150 
10.03507 1.88071 2.16231 
6.44627 5.44743 10.76474 
7.82670 2.16205 5.44223 
6.61473 1.90216 7.89399 
10.59278 8.54572 4.51449 
10.94314 3.67343 8.19290 
4.04642 9.45135 8.54079 
8.53501 3.99453 7.34587 
3.60189 5.99977 9.27456 
10.41326 6.76460 9.55321 
5.83986 3.83852 6.23213 
4.64241 3.34928 9.22609 
1.74124 4.07550 10.13518 
5.48639 0.99379 5.19917 
5.33700 9.75617 3.94623 
1.27034 10.66104 10.40462 
8.69453 3.50923 0.72178 
10.02924 2.46525 10.20945 
1.56866 7.45611 6.01519 
5.74579 9.56357 10.68512 
6.96376 7.70549 3.75000 
4.55997 9.12564 1.61331 
0.93068 4.64536 6.08812 
8.08520 6.46183 8.21388 
8.40993 7.92783 6.06129 
3.53361 7.94448 10.72410 
1.11301 5.81602 8.20808 
6.83764 10.33314 8.32594 
0.83606 10.32671 5.22149 
4.57743 7.33116 4.77369 
1.82924 0.27283 1.41034 
1.13223 10.56440 7.65776 
8.13090 9.74823 4.22823 
5.86643 1.05992 9.94432 
2.65496 10.61647 3.41545 
0.83562 1.16725 3.64497 
2.69521 0.86564 5.53873 

-0.331975 -0.881339 0.338358 
0.092913 -0.202744 -0.150568 
-0.055247 -0.051422 0.132848 
-0.215008 0.660693 0.336962 
-0.022658 -0.130808 -0.543569 
0.068811 -0.211394 0.050227 
0.688162 -0.787486 1.069811 
0.168756 -0.035782 -0.467434 
-0.609355 0.908731 0.004124 
-0.400621 0.756388 0.342204 
-0.112342 -0.027472 -0.023777 
-1.460832 -0.547276 0.175287 
-0.812322 -0.323621 -0.908700 
1.495720 1.184651 0.352162 
-0.031049 0.216112 -0.434899 
-0.151404 -0.085132 0.312075 
-0.257067 -0.726525 0.701349 
1.025522 -0.144086 0.376858 
0.050022 -0.293340 -0.796197 
0.267315 -0.439020 -0.338222 
-0.224158 0.357495 -0.201315 
0.010570 -1.248715 -0.122336 
-1.119324 0.766933 -0.725356 
0.134690 0.020938 -0.103911 
0.016083 -0.375287 -0.036510 
0.994806 0.687603 -0.326744 
-0.119378 1.134723 -0.616844 
0.146157 -0.191081 0.192502 
0.126010 0.119529 -0.383685 
-1.284602 -1.222567 0.367669 
0.570362 0.016136 0.556958 
-0.264879 0.508795 -0.187031 
0.065020 0.430062 0.188742 
0.685723 -0.090478 0.144126 
-0.189730 0.228844 -0.960444 
0.612246 -0.167096 -0.711601 
0.217194 -0.195495 0.327579 
-0.047657 -0.141582 -0.458218 
-0.179874 0.153005 -0.991005 
0.204348 0.411582 -0.184010 
0.163030 -0.933026 0.357979 
0.450354 -0.143032 0.204414 
-0.071417 -0.642386 0.704255 
-0.532598 0.377131 0.364308 
0.122910 0.387340 0.345342 
-0.380826 0.437823 0.150109 
0.334702 -0.010432 0.808310 
0.610500 -0.540104 0.204878 
0.475635 -0.834360 0.442854 
-0.087144 0.128919 0.183944 
0.139044 -0.070059 0.209849 
1.771693 0.734803 0.223967 
-0.153744 0.523937 0.061379 
-0.119782 0.824229 0.173063 
-0.147180 0.093790 -0.121369 
0.281360 0.512739 0.034178 
-1.069976 -0.880944 -0.151392 
-0.224322 -0.238293 -0.725782 
-0.117812 -0.461079 0.477433 
-0.386007 0.019708 0.195790 
0.790666 -0.726706 0.014140 
-0.496142 1.733746 -0.206249 
-0.200524 0.522861 -1.336467 
0.697220 0.888140 -0.190038 
-0.350159 -0.000829 0.776924 
-1.695840 0.502095 -0.287573 
0.631426 0.110644 -1.299471 
-0.274963 -0.284998 -0.223793 
0.072062 0.073597 -0.266337 
-0.059248 0.637107 0.587112 
-0.445627 -0.082166 0.277858 
0.070227 -0.556026 0.160306 
0.530603 0.153638 -0.079727 
0.708599 -1.040452 1.074261 
-0.223673 -0.319899 -0.036310 
0.455204 0.087464 -0.327698 
-0.444795 -0.194540 0.120787 
0.176660 0.611776 0.004153 
-0.674124 -1.072388 -0.775735 
0.079174 0.769185 -0.220792 
-0.515057 0.006576 0.287016 
-0.159691 -0.098459 0.111993 
0.317478 0.385157 0.316447 
-0.281860 -0.544795 -0.018089 
-0.838456 0.010947 0.031505 
0.482240 -0.099783 0.568067 
0.513779 0.734230 -0.591773 
-0.131927 0.054989 -0.225417 
0.692301 0.400161 0.374225 
0.224892 0.112992 -0.043233 
-0.073248 -0.478091 0.862797 
-0.299541 0.063816 -0.215999 
-0.754015 1.188547 0.212031 
0.164699 -0.239042 -0.869078 
0.497702 -0.658840 0.046775 
0.255770 0.242837 -0.268030 
-0.460739 -0.577451 0.685460 
0.883347 -0.874634 0.339196 
-0.470862 -0.709686 0.024205 
-0.203068 -0.060873 0.165708 

-0.0894505875 -0.0851626375 -0.0847231 -0.00293213125 -0.00022463125000000002 0.003437575 

2