111 1 Fe 26 -775.44200948 48.36913031999984 48.36913031999984
1.00000000 
    11.3365200000000002    0.0000000000000000    0.0000000000000000
     0.0000000000000000   11.3365200000000002    0.0000000000000000
     0.0000000000000000    0.0000000000000000   11.3365200000000002
100
Cartesian 
0.31886 9.99524 2.52001 
5.80179 9.19491 6.40764 
3.82701 7.56506 7.10139 
10.45119 0.06352 11.15561 
10.49363 4.30817 2.70369 
0.05810 1.02786 8.72837 
6.75471 9.86383 1.78502 
8.15932 7.57579 10.75132 
5.44893 0.27297 1.25559 
2.82195 0.91759 8.93667 
1.95769 8.85830 0.98429 
3.82848 3.15498 5.29788 
6.28437 3.11638 1.16236 
3.87181 6.40400 2.24531 
6.38108 5.32164 2.54500 
7.36927 2.97882 9.85772 
3.66323 2.48492 11.20445 
3.67733 10.95851 10.81057 
4.77920 0.26824 7.56863 
5.64638 7.51910 9.25562 
1.48156 6.30169 10.98446 
7.92653 1.39091 0.53539 
11.25915 7.12625 1.98291 
7.23400 0.86863 3.23680 
8.91501 8.43535 1.90757 
3.43504 3.92231 2.65499 
5.13350 5.13540 4.51944 
2.35831 2.87593 7.35362 
11.04164 4.69531 0.19001 
1.76644 5.56636 1.93466 
3.45717 1.59680 3.04433 
6.49792 7.37313 1.04624 
9.30501 1.74263 7.20070 
7.97270 3.50928 2.97766 
10.06219 10.65892 6.98424 
1.13471 3.56302 3.92344 
3.33235 9.70573 5.82417 
3.90995 5.00634 0.40067 
8.42814 9.94318 0.02750 
3.57288 5.01209 7.10424 
6.05347 4.90633 8.42557 
10.67714 8.20519 7.16576 
0.22909 6.06430 4.28333 
9.34594 6.38436 3.64842 
10.07853 9.40290 9.11988 
10.09815 5.85661 6.46941 
9.58143 0.69308 4.54147 
2.68635 5.82690 4.52920 
5.61819 3.06654 3.47347 
8.51673 0.41106 9.25553 
10.81494 8.56818 0.03601 
9.86881 3.26794 4.85590 
1.38377 8.09389 9.04787 
9.02807 5.81253 1.22175 
7.57103 11.25476 6.10242 
1.80120 8.09774 3.59984 
9.34123 10.96523 2.07457 
1.12968 1.97659 10.86004 
0.39317 1.96725 5.97770 
7.81237 5.09536 5.08839 
8.67393 5.15755 10.07112 
1.40590 2.58591 1.74392 
6.09953 6.61119 6.67289 
10.06244 1.77971 2.08380 
6.35976 5.52334 10.91922 
7.77196 2.43008 5.39108 
6.74412 1.90419 7.73320 
10.67899 8.44577 4.41327 
10.85353 3.67582 8.15037 
4.06987 9.47003 8.59204 
8.67422 4.03972 7.28572 
3.62610 5.95795 9.28555 
10.45473 6.65574 9.62059 
5.86477 3.66646 6.38503 
4.53906 3.38895 9.17653 
1.67926 4.27833 10.08596 
5.54925 0.99583 5.03091 
5.39290 9.86854 4.05297 
1.25326 10.72265 10.48587 
8.68904 3.49233 0.65697 
9.82077 2.56506 10.22069 
1.59635 7.51499 6.16418 
5.74867 9.67692 10.78143 
6.89313 7.55308 3.67417 
4.63066 9.19055 1.56940 
0.99751 4.55832 6.02576 
7.93465 6.44287 8.19328 
8.43517 7.86968 6.30152 
3.44850 7.93607 10.70293 
0.96906 5.75574 8.13023 
6.94644 10.26031 8.37286 
0.80209 10.26962 5.12398 
4.63740 7.35129 4.68566 
1.97435 0.23500 1.39265 
1.01446 10.59541 7.67065 
8.00714 9.67573 4.16238 
5.89018 0.94731 10.02172 
2.66537 10.46754 3.45788 
0.72163 1.14883 3.66257 
2.65398 0.92566 5.60325 

-0.236317 -0.243979 0.062352 
0.169663 -0.013949 -0.133660 
-0.045260 -0.290662 0.373095 
-0.382681 0.504633 0.042367 
0.087424 0.314612 -0.869953 
-0.862592 0.337309 0.315834 
2.018558 -0.269930 1.231132 
0.487509 -0.015718 -0.671949 
-0.850966 1.287796 0.168432 
-0.193718 0.495447 0.178794 
-0.372501 -0.067931 0.378314 
-1.209842 -0.228239 -0.647141 
-1.052554 -0.096398 -0.725412 
1.171737 1.523810 0.676214 
-0.001003 0.311056 -0.944862 
-0.411395 0.051503 -0.154200 
-0.234736 -0.721047 0.869769 
-0.150554 -0.233781 0.279226 
0.211033 0.123633 -0.566617 
0.373546 0.055989 -0.028665 
0.028772 1.876483 0.070715 
-0.013960 -1.934397 -0.178040 
-0.423517 0.247803 0.070362 
0.040514 -0.165678 -0.189984 
0.138533 -0.513568 0.428486 
0.833721 0.526598 0.019866 
-0.001251 0.132869 0.461545 
-0.340876 -0.058484 0.636235 
-0.436691 -0.249429 -0.128784 
-1.227190 -0.743440 0.635145 
-0.154621 -0.572873 0.341361 
-0.596067 0.651482 0.148077 
0.425915 -0.371563 0.012806 
1.094209 -0.359418 0.341559 
-0.565981 0.256490 -0.585370 
0.748851 0.220717 0.101761 
-0.129149 0.001076 0.187693 
-0.110472 -0.438602 -0.863224 
-0.214812 0.302371 -1.165437 
0.056389 -0.062624 -0.757988 
0.748182 0.252008 0.460020 
0.875379 -0.144075 -0.095966 
0.604840 -0.357030 -0.301006 
-0.909409 0.303106 0.321382 
0.004521 0.731529 0.770393 
-0.012665 0.149307 -0.128157 
0.121176 -0.079574 0.125301 
0.059790 -0.890032 -0.102749 
0.437059 -1.011350 0.719307 
0.591726 0.700842 0.280675 
-0.009269 0.169341 -0.057476 
1.107829 0.658878 0.439216 
-0.311357 0.329725 0.110046 
-0.490671 0.870487 -0.248386 
-0.129310 0.078445 0.196569 
0.192909 -0.036662 -0.076089 
-0.685883 -0.879994 0.526237 
-0.278387 -0.609831 -0.741882 
-0.223183 -0.660704 0.531210 
-0.659679 0.219822 0.193259 
0.152902 -0.814292 -0.035195 
0.081758 1.114435 -0.300829 
-0.198933 -0.200182 -0.853262 
0.619654 1.000170 -0.063163 
-0.012148 -0.676536 -0.275080 
-1.032347 -0.389827 -0.434485 
0.228973 -0.565929 0.089844 
-0.554724 -0.112495 0.150486 
0.784356 0.015479 -0.184328 
-0.019237 0.302049 0.678960 
-1.285543 0.252365 0.500072 
0.005433 -0.093239 0.313718 
0.475654 0.312778 -0.134914 
0.047616 0.303017 -0.281000 
-0.329926 -0.811702 -0.144989 
0.800747 -1.238536 -0.756934 
-0.660644 -0.073054 0.459201 
0.182804 0.390473 -0.261692 
0.053092 -0.878803 -0.767173 
0.075091 1.377276 0.685315 
0.583349 -0.596133 -0.543680 
-0.471775 -0.040861 -0.285733 
0.478579 -0.351875 -0.565103 
0.162922 -0.169124 0.098123 
-1.783675 -0.378569 0.181025 
0.342587 -0.097309 0.831130 
0.761556 0.424813 0.135761 
-0.483583 0.347954 -0.872860 
0.991158 0.258508 0.105898 
0.554662 0.554151 0.067844 
-0.451924 -0.590227 0.237721 
0.008719 0.266540 0.223834 
-0.820959 1.665967 0.189615 
0.032233 0.087450 -0.322269 
1.048935 -0.972899 -0.129968 
0.447319 0.275865 -0.027722 
-0.232891 -0.057766 -0.072934 
0.702658 0.093181 0.097686 
0.034630 -0.906363 -0.022309 
-0.020478 -0.391107 -0.052507 

-0.08830920625 -0.08200258125 -0.08647093125 -0.00034676875000000005 -0.00183938125 0.0027828562499999997 

2