111 1 Fe 26 -776.48039837 47.330741429999875 47.330741429999875
1.00000000 
    11.3365200000000002    0.0000000000000000    0.0000000000000000
     0.0000000000000000   11.3365200000000002    0.0000000000000000
     0.0000000000000000    0.0000000000000000   11.3365200000000002
100
Cartesian 
0.14992 9.75653 2.78332 
5.60134 9.39147 6.44482 
3.84674 7.61759 7.70236 
10.46179 0.11858 11.23057 
10.57332 4.80229 2.32003 
0.00517 0.37631 8.35893 
6.73542 9.76287 1.87027 
8.35201 7.91801 10.02712 
5.25400 0.21731 1.59093 
3.09035 0.78721 9.42560 
1.64501 8.83048 0.98961 
3.29662 3.04951 5.00691 
5.68206 2.76947 0.67888 
4.52408 6.87187 2.49687 
6.64786 5.37984 1.91660 
7.29609 2.79431 10.09809 
3.44217 1.79015 0.31234 
3.31866 10.69165 11.23062 
4.51362 0.06704 7.50013 
6.04864 7.52489 9.00334 
1.54832 6.57230 11.11685 
7.84405 1.29428 0.59416 
11.11943 7.17629 2.33133 
7.04810 0.71514 3.03395 
8.77280 8.54159 2.50183 
4.23239 4.12208 2.57220 
5.44675 5.32865 4.42965 
1.75334 2.35927 8.15025 
11.26674 4.52363 10.95831 
1.81596 5.78960 2.10483 
3.58967 1.74415 3.00552 
6.50153 7.57538 0.69368 
9.09686 1.84911 6.95574 
8.26574 3.73723 3.30217 
9.87766 10.49762 6.34339 
1.09055 3.61210 3.48751 
3.32117 9.71692 5.88628 
4.12801 4.91166 0.42591 
8.20365 10.20954 10.85867 
3.79924 5.44568 6.62781 
5.97659 5.09944 8.11038 
10.95921 8.13815 7.16139 
0.09833 5.94038 4.46613 
8.72123 6.20534 3.21002 
9.98402 9.65605 8.89690 
10.05822 5.72566 6.42296 
10.05281 0.96095 4.77802 
2.73374 5.59403 4.24933 
5.70216 3.05965 3.76440 
8.41597 0.57660 9.11114 
10.53757 9.06756 0.20647 
10.44894 3.58929 5.23137 
1.84266 7.85298 8.93693 
8.99033 6.61956 0.66476 
7.31920 11.12348 6.48413 
1.98910 7.99838 3.49057 
9.37812 11.05937 2.06745 
0.95353 1.71997 10.57278 
0.53343 1.57340 6.26898 
7.73104 5.14500 5.45000 
9.25259 5.16902 9.72777 
1.61804 3.34628 1.21868 
5.97147 6.86427 6.31908 
10.55353 2.36093 2.11343 
6.67334 5.18251 10.84533 
7.65804 2.14863 5.11904 
6.61226 1.59255 7.74092 
10.54787 8.32918 4.62243 
10.53745 3.75094 8.13554 
3.83851 9.59470 9.15538 
8.06351 3.92317 7.57978 
3.92534 5.54142 9.33886 
10.83521 7.05863 9.47483 
5.50230 3.48118 6.15235 
4.85963 3.18093 9.81626 
2.48873 3.73271 10.29131 
5.05722 0.88392 5.06218 
5.35611 10.11166 4.02336 
1.15624 10.34208 10.40882 
8.51921 4.00639 0.80090 
9.75382 2.43942 10.47999 
1.74396 7.12070 6.27052 
5.58803 9.93306 11.22271 
6.33737 7.70317 3.68532 
4.26465 9.17637 1.72823 
1.20507 4.28458 6.10375 
8.40284 7.07755 7.85511 
8.24169 7.98883 5.73984 
3.99615 7.66862 10.71914 
1.39874 5.54714 8.32505 
6.58736 10.13332 8.75963 
0.65512 10.38508 5.27570 
4.05705 7.44823 5.00146 
1.49283 0.12319 1.37135 
1.71610 10.05837 7.59691 
8.22513 10.28162 4.29126 
5.54063 0.71209 10.23944 
2.72776 10.55188 3.36655 
0.92262 1.02859 3.47842 
2.56142 0.57806 5.60932 

-0.200946 0.325360 0.028942 
0.397364 -0.493837 0.139471 
0.346537 -0.039505 -0.205433 
-0.589568 0.255703 -0.425448 
0.291405 -0.263296 -0.475840 
-0.390390 0.429370 0.771303 
1.547477 0.166954 1.199366 
-0.161367 0.094049 0.681106 
-1.227870 1.123569 -0.125329 
-0.459637 0.337144 -0.485393 
0.660236 -0.362619 0.294811 
-0.131396 0.504799 0.051990 
0.533664 0.387681 1.415658 
-0.921643 -0.932787 -0.529157 
-0.565175 -0.352940 0.543865 
0.520771 0.499349 -1.080978 
0.162029 0.662765 0.358861 
0.302321 -0.426551 0.873167 
0.194297 0.002930 -0.114361 
-0.325769 0.175148 0.290494 
0.090122 -0.530394 -0.409400 
0.369719 -0.503796 0.141902 
-0.378411 0.962247 -0.706060 
0.259736 0.675795 0.673865 
0.571596 -0.010349 -0.356138 
-1.986580 0.677430 -0.402044 
-0.545544 0.277628 0.029614 
0.017811 0.809160 -0.178446 
-0.186900 -0.035660 0.187371 
0.218639 -0.208896 -0.340691 
-0.339619 -0.554491 -0.376149 
-0.196152 -0.012052 0.011151 
0.815806 -0.675598 0.347759 
0.141635 -0.195011 -0.231267 
-0.238360 -0.120158 0.803714 
0.482048 0.008736 1.154914 
-0.145162 -0.574556 -0.583616 
0.155577 0.495161 -0.546319 
-0.185675 0.110348 0.670453 
-0.552290 -0.907298 -0.067196 
0.099693 0.149697 0.374348 
-0.108214 -0.084065 -0.074425 
0.877694 0.006708 -0.571662 
-0.048965 -0.088224 0.530507 
-0.259161 -0.031719 0.667242 
0.010855 0.385607 0.713403 
-0.743181 -0.184720 -1.050390 
0.084008 -0.725463 0.590250 
1.765374 -1.292565 0.041412 
0.348165 -0.054838 0.205329 
-0.107530 -0.610700 0.299231 
-1.303177 -0.312203 -0.401970 
-0.461302 0.356177 0.544108 
0.278639 -0.501767 0.148353 
0.469648 0.157178 -0.515259 
-0.181283 0.130100 0.502093 
-0.206491 0.006575 0.220237 
-0.133122 0.081631 0.078732 
-0.761173 0.521551 -0.425495 
0.155258 0.148982 -0.139165 
-0.938145 -0.006110 0.088430 
0.031781 -0.063992 -0.081678 
0.785020 -0.184566 0.545778 
-0.334980 -0.446091 -0.520479 
-0.309297 0.378728 -0.746255 
-0.374663 0.070781 0.502092 
-0.594462 0.698840 0.471361 
-0.242846 0.007900 0.018013 
1.001966 -0.369929 -0.128441 
0.522311 0.324876 -0.414398 
0.190195 -0.113016 0.046371 
-0.268802 0.412272 -0.079240 
-0.165872 0.000900 0.167836 
0.577123 0.117180 0.510677 
-0.010308 0.075839 -0.809728 
-0.766973 0.205706 -0.449540 
0.207732 0.405363 0.431698 
-0.136515 -0.542027 -0.380465 
-0.378165 -0.528477 -1.434014 
0.299411 -0.187011 -0.121155 
0.256590 0.198161 -0.376577 
-0.081512 -0.085924 -0.469796 
0.690775 -1.626279 -1.916790 
0.948351 0.337940 0.214785 
-0.515454 -0.475755 0.613043 
0.357659 0.164520 0.294864 
0.001716 -0.924507 -0.071679 
-0.085608 0.376879 -0.803965 
-0.088347 0.149677 0.427726 
-0.018821 -0.080187 0.159737 
0.141899 -0.155817 -0.030854 
0.489566 -0.436639 -0.243229 
0.121497 1.124015 -0.172348 
-0.330715 0.463178 -0.308844 
-0.208690 0.185851 0.279124 
-0.019438 -0.551797 -0.160742 
0.218224 0.501003 -0.374680 
0.231482 -0.166738 0.051521 
0.030991 0.307410 0.663784 
0.639121 0.598399 -0.159272 

-0.09265643125 -0.08657521875 -0.07957221875 -0.00098000625 0.00275933125 -0.008220475 

2