111 1 Fe 26 -776.17333442 47.63780537999992 47.63780537999992
1.00000000 
    11.3365200000000002    0.0000000000000000    0.0000000000000000
     0.0000000000000000   11.3365200000000002    0.0000000000000000
     0.0000000000000000    0.0000000000000000   11.3365200000000002
100
Cartesian 
0.28897 10.06524 2.83037 
5.58741 9.17060 6.33521 
3.61312 7.31941 7.60376 
10.41716 0.03019 11.20972 
10.68257 4.71071 2.46767 
11.15567 0.77660 8.61666 
7.18964 9.98289 2.04341 
8.35211 7.82438 10.40429 
5.06707 0.34014 1.11427 
2.81188 0.61938 9.15227 
1.78145 8.78556 1.17525 
3.40186 3.05309 4.95789 
6.08719 3.17779 1.03187 
4.31115 6.82059 2.54640 
6.60939 5.54129 2.11668 
7.67017 2.92243 9.85294 
3.63494 2.26082 0.20532 
3.35716 10.36318 11.23886 
4.74636 0.28333 7.55930 
5.96022 7.52735 9.33685 
1.56496 6.72593 10.93997 
8.00094 0.92644 0.54500 
11.21055 7.47332 2.10754 
6.92807 0.76622 3.05609 
9.11300 8.47922 2.22433 
3.70212 4.02257 2.57636 
5.15624 5.28135 4.24679 
1.62517 2.86067 8.01691 
11.10876 4.31163 0.18991 
1.67737 5.57773 1.99431 
3.58130 1.44466 2.77227 
6.21336 7.78110 0.80956 
9.46199 1.59915 7.08978 
8.15326 3.69699 3.30021 
9.90727 10.47339 6.91178 
1.24383 3.51044 4.03852 
3.13503 9.63993 5.76960 
3.91870 4.92787 0.21388 
8.23243 10.18837 10.97203 
3.42232 4.91292 6.66649 
5.96249 5.25341 8.40231 
10.91797 8.09867 7.09650 
0.29044 6.13711 4.17806 
8.85744 6.22614 3.44320 
10.32793 9.71115 9.35398 
10.01562 5.67710 6.51687 
9.69980 0.62810 4.39464 
2.69519 5.42313 4.34736 
5.76185 2.66630 3.69609 
8.67309 0.62528 9.25241 
10.62131 8.70932 0.20344 
9.92437 3.35118 4.85439 
1.47003 8.23158 9.10386 
8.78587 6.25375 0.85179 
7.49016 11.04298 6.41561 
2.19377 8.14546 3.51951 
9.39463 10.92717 2.13727 
1.10865 1.42486 10.55634 
0.25744 1.78336 6.06094 
7.62281 5.34408 5.36260 
8.96796 4.90436 9.86294 
1.65166 3.06344 1.43945 
6.09229 6.74890 6.36894 
10.20405 2.27968 2.25641 
6.54288 5.28023 10.77040 
7.51629 1.87012 5.40390 
6.59265 1.93632 7.77070 
10.39539 8.65063 4.63104 
10.99390 3.72014 8.23433 
3.96530 9.62711 8.62802 
8.13018 3.88546 7.53444 
3.60418 5.83423 9.40054 
10.49809 7.01880 9.40049 
5.91441 3.81733 6.23896 
4.77237 3.21174 9.36907 
2.03937 3.72686 10.15953 
5.22993 0.94914 5.50593 
5.27725 9.74126 3.76012 
1.12424 10.19608 10.01920 
8.69237 3.72639 0.76065 
10.20825 2.33554 10.33104 
1.53009 7.30599 5.80360 
5.82715 9.54439 10.68026 
6.92573 7.81409 3.83314 
4.20439 9.02711 1.72497 
0.96698 4.75141 6.31051 
8.50593 6.71141 8.04920 
8.34172 8.01022 5.63639 
3.88901 8.01539 10.85788 
1.43541 5.92999 8.34294 
6.60534 10.32076 8.54908 
0.75960 10.44455 5.31219 
4.17770 7.60141 5.00996 
1.58781 0.27601 1.24339 
1.49748 10.28211 7.64532 
8.40677 10.01590 4.28375 
5.68143 1.05401 10.05179 
2.87290 10.56090 3.39186 
0.91318 1.04915 3.59747 
2.71981 0.71228 5.48364 

-0.158383 -0.456512 -0.253201 
0.253369 0.303892 0.185216 
0.420498 0.672827 -0.604673 
0.290910 0.061872 0.149454 
-0.300210 -0.376664 0.365461 
0.572084 -0.266272 -0.210061 
-1.296581 -0.519869 -0.883838 
-0.329946 -0.168072 0.027166 
0.686510 -0.216707 0.382988 
0.416139 0.405963 0.067588 
-0.140334 0.180022 -0.562692 
0.851016 0.016161 0.291790 
-0.220889 -0.429893 -0.172543 
-0.269276 -0.724240 -0.235966 
-0.123582 -0.457666 0.151520 
-0.775425 -0.301311 0.555464 
0.119893 -0.503425 -0.290879 
-0.005210 1.228043 -0.661693 
-0.430578 -0.367259 0.614250 
-0.203887 0.085951 -0.342008 
-0.068515 -0.610320 0.388435 
-0.313343 1.558821 0.148914 
0.424465 -1.191959 0.605748 
0.530095 -0.169909 0.071610 
-0.838812 0.004821 0.012615 
0.368689 -0.037595 -0.367485 
0.478446 -0.095319 0.537390 
1.607502 -0.947119 -0.700695 
0.347843 0.504645 -0.522715 
0.429382 0.277371 -0.030852 
-0.246296 0.697176 0.479725 
0.800984 -0.758868 0.312038 
-0.983638 0.480551 -0.194995 
-0.353033 -0.094073 -0.386087 
0.314084 0.184611 -0.553797 
-0.718785 0.005294 -0.816201 
0.388493 0.160725 0.331307 
0.192881 -0.162559 0.778709 
-0.034056 -0.604268 0.125613 
0.709346 0.686876 0.473323 
0.204900 -0.525880 -0.579814 
-0.310697 0.239686 0.210664 
-0.505362 -0.193725 0.229577 
0.537501 0.145475 -0.295745 
-0.791735 -0.513847 -1.156211 
0.103294 0.211672 -0.262099 
0.575126 0.760957 0.698998 
-0.046943 1.226642 0.080120 
-0.571370 1.155814 0.067622 
-0.693364 -0.376655 -0.144365 
0.208332 0.416399 -0.405992 
0.476464 -0.002683 0.487168 
0.417619 -1.221224 -0.689426 
0.469005 -0.193176 0.128689 
-0.232699 0.260091 -0.145433 
-0.555432 -0.350730 0.168145 
0.439767 0.548813 -0.411061 
0.087221 0.898983 0.336517 
0.597965 -0.094255 -0.045427 
0.606925 -0.668239 -0.362863 
0.165283 0.709487 -0.201282 
-0.547247 -0.245107 0.113219 
-0.396496 0.233524 0.569163 
0.218502 -0.632717 -0.191592 
0.160840 0.073741 0.489284 
0.692105 1.031641 -0.465316 
0.137175 -0.406282 -0.013442 
0.933285 -0.375480 -0.426308 
-1.644053 0.495905 0.184413 
-0.210688 -0.192650 0.408672 
0.508588 0.236423 -0.384887 
0.447764 -0.291187 0.091765 
0.402506 -0.401937 0.343026 
-0.712483 -0.502907 -0.132370 
-0.211050 0.342446 0.332347 
0.282330 0.735140 0.451154 
0.307115 0.220612 -1.512412 
0.097805 0.469958 0.607712 
0.541641 1.662251 1.803144 
-0.306662 -0.039836 -0.112871 
-0.994587 0.362767 0.018110 
0.666762 0.184252 0.936180 
-0.275686 0.846844 0.606310 
-1.049203 -0.523612 -0.648747 
0.640303 0.691152 0.028674 
0.112847 -0.717949 -0.721401 
-0.862941 -0.023385 -0.171161 
0.064700 -0.451553 1.540995 
-0.561045 -0.857170 -0.669756 
-0.773323 -0.534559 -0.189064 
0.400042 -0.139980 0.184235 
-0.288003 -0.269186 -0.311693 
0.036911 -0.765013 -0.312305 
0.380900 -0.220019 0.588031 
-0.213514 0.052604 -0.222557 
-0.931725 -0.002223 0.129798 
0.207917 -0.599847 0.214689 
-0.384169 -0.209221 -0.238598 
-0.160367 0.318730 -0.168031 
-0.290454 -0.045526 0.277884 

-0.09036475625 -0.084293375 -0.07950054375 -0.00228715 0.00108269375 -0.0026092125 

2