111  4  Ta 22 Ti 23 V 73 W 74   -1296.81988307  30.44854701  30.44854701 
1.0
12.82959982 0.35767772 -0.02308720
-0.03428210 12.93849937 -0.15322231
0.03241173 0.00411901 12.82537519
Ta Ti V W 
32 32 32 32 
Cartesian 
12.83172035 6.81639004 9.52029037
11.22636986 5.07350016 1.71571004
11.36534977 8.32054996 4.74006987
10.92712975 11.82896042 4.68185997
11.25905037 1.60757005 8.07347012
11.26455021 5.01922989 7.98425007
9.77575016 3.41494012 6.57036018
11.21667957 8.44237995 7.80289984
6.42279005 3.25871992 3.48728991
4.80502987 5.10887003 1.70305002
6.36594009 9.79518986 2.99135995
3.33572006 6.70349979 12.62605953
11.31116009 5.08008003 11.14869976
9.72677040 9.82759953 9.60731983
6.59813023 9.76945019 6.29512978
3.14244008 9.83732033 3.09650993
6.42570019 6.69983006 3.08523011
0.07816000 9.90869045 -0.05873000
12.78359985 6.66870022 0.13847999
1.86750996 11.48157024 7.85601997
0.16154000 3.05318999 6.70922995
0.14319000 0.02898000 6.49226999
4.75377989 4.88886023 11.30821037
12.69188976 10.42014980 3.52936006
1.34794998 8.04683971 4.52630997
1.59404004 8.15657997 11.61633968
6.61580992 9.77966022 9.40956974
7.93381023 8.30760956 11.18620014
4.75639009 1.87665999 8.15266991
6.44329023 13.06610966 9.62786007
8.15540028 1.82132006 11.31916046
2.94320011 6.64253998 6.30983019
11.22708035 11.69534016 11.01222992
6.23874998 3.46799994 6.06693983
9.68317032 6.64439011 9.84716988
3.45026994 12.74697971 12.65425968
4.85118008 1.91486001 1.80846000
7.94074011 5.10441017 4.91875982
6.69020987 0.23509000 3.52325010
6.50108004 6.66571999 0.06099000
6.58524990 10.15468025 12.66860008
9.53892994 10.03411961 3.14410996
6.35790014 0.26536000 0.26620001
11.51632977 2.00774002 4.55345011
9.64811993 10.14708042 -0.13099000
8.28205967 1.83784997 4.91871023
7.94430017 7.75718021 7.96023989
11.46977043 8.13117027 1.54347003
3.19540000 3.12767005 3.26607990
0.17795999 9.73624992 9.52287960
1.87750006 11.34173965 11.06311035
0.05606000 6.07470989 6.27213001
3.09671998 6.41163015 9.87362003
4.90639019 4.88607979 4.50540018
4.81533003 1.61074996 11.53804970
1.61197996 1.86754000 4.98365021
3.19247007 3.31478000 9.59235001
4.79493999 4.96725988 8.11915016
6.29502010 6.55064011 9.74032021
6.58291006 3.08293009 9.91030025
1.71879005 8.36454964 1.43147004
4.53476000 11.41409016 4.81821012
0.18043999 0.29414999 12.45909977
2.97613001 3.46834993 6.47853994
11.40252018 8.25129986 11.16351986
9.86165047 0.28641999 9.55945969
11.37796021 1.91735005 11.26401997
3.21456003 9.73954010 -0.07099000
4.71756983 8.38626003 1.37512004
3.24732995 3.32925010 12.69841003
11.49400997 1.97528005 1.66930997
9.41886997 0.39901000 6.57822990
6.50149012 3.54710007 0.01743000
11.11662960 11.67183971 1.38646996
9.68023968 3.42484999 12.73987007
9.89696980 13.18447971 12.59288025
7.93397999 4.91415024 7.99939013
11.21887016 11.47661018 7.84834003
3.15724993 12.90925026 2.74501991
8.18412018 11.42553043 4.99194002
1.73933995 1.29533994 1.21948004
1.27512002 4.84176016 11.57318974
0.37151000 12.72150993 9.70448017
12.47620964 10.17838955 6.40991020
1.70861006 8.18964005 7.81475019
6.18205023 6.64520979 6.51041985
1.87205005 1.55762994 8.21228981
3.55296993 0.13773000 9.93778992
1.54384995 4.91479015 8.09955978
0.39250001 3.18409991 2.83482003
4.86194992 8.24956036 7.60112000
0.23988000 12.81651974 2.63678002
3.32827997 12.99363995 6.30715990
1.60570002 11.33876038 1.24171996
4.65496016 8.03005028 4.67635012
0.07747000 6.28314018 3.33097005
8.04623985 1.82800996 8.02017021
9.52999020 3.55644989 9.48808956
4.81459999 11.61166000 1.59168994
7.69734001 7.98529005 4.86157990
9.68041039 9.91147041 6.35186005
9.23933029 6.48122978 6.38065004
11.27600956 4.91178989 4.83900023
7.91310978 8.11872959 1.33289003
7.92425013 5.04727983 1.64556003
9.75162983 6.71949005 3.15320992
8.21761036 1.80070996 1.31937003
9.73334026 3.56285000 3.12230992
6.59424019 0.29949999 6.72977018
8.16504955 11.66491985 1.36359000
4.75844002 1.68517995 4.91216993
4.77198982 11.51753044 8.14632988
3.04816008 6.60889006 3.11470008
1.64639997 4.63192987 1.66466999
12.66310024 3.30673003 0.10585000
8.14097977 5.15588999 11.32254028
8.13850021 11.72214985 10.78201962
1.81386995 5.03629017 4.67931986
3.16804004 9.90688992 6.22383022
1.55145001 11.74701977 4.65427017
4.66828012 8.52355003 11.21129990
5.01963997 11.62065029 10.94242001
3.26703000 9.77105045 9.38123035
1.78711998 1.83141005 11.14980030
12.74341011 3.34574008 9.68552017
9.72449970 12.95355034 2.68575001
7.99481010 11.62940025 7.90786982
9.93278027 6.77632999 12.56011009

0.66192299 0.09930100 0.02359400
-0.14923801 0.03504300 -0.95546198
-2.50564790 -0.38925901 0.20335101
0.75498998 0.14089000 1.40854096
0.56801999 1.07594097 1.01006198
-0.55923402 0.55066401 1.06444800
-1.01211500 -0.10713200 -2.03709602
-0.07926100 -1.54867995 0.63720202
1.64771402 -0.69128603 -2.88526392
-0.37779501 -1.38621998 -1.21569705
0.08212500 0.61049098 0.53419799
-0.27355200 -1.20179296 2.30656195
-0.25082999 -1.23431003 0.54385000
-0.26086399 0.49834800 -0.86641902
-2.05826092 0.91041601 0.42830300
0.52309799 0.67456597 -0.26107401
-1.10299397 -0.10088700 -0.08549100
-1.70921004 -0.23923901 0.00432200
1.43669999 -0.01378500 -0.51634401
-1.34514105 -0.55070102 0.74992800
-0.36272699 0.65023702 -0.91477299
-0.67527002 -0.05095000 0.12014800
1.33265305 -0.61108398 -0.09706200
0.75922298 -0.66041499 -3.32512498
1.67191005 1.16535699 1.51807904
-0.77647698 0.03299000 -4.11200714
-1.85574901 0.77885902 -0.02220400
1.30934501 -0.06275900 -0.09015900
0.86154801 -0.83638102 -0.91933298
1.07664299 2.95385504 -1.82184696
1.10061598 -0.16758101 0.33799499
2.04742599 -0.21428500 0.99304700
0.61713099 0.41703999 -0.09988100
0.73756999 -0.85805899 3.31733990
-0.32993799 0.37075001 -2.21252203
-0.60282999 1.09237397 0.67179698
-0.12981300 -0.84736902 -1.08361697
0.61794001 -0.77309197 -1.15391505
-0.60297698 -0.99541497 -1.29021597
-1.27702403 -0.18130000 -1.31040001
-0.88523901 -0.37898999 0.58996999
-0.34956899 -1.11405694 -0.71828002
1.17227805 -0.46364400 -0.62897003
-0.69663799 -0.51589203 0.00185200
0.01968500 -1.07222497 -0.49356100
0.08785700 -0.05309200 -0.57775402
-0.04259700 1.95506096 0.70032501
-1.15791798 1.88274705 1.23263001
-0.22493400 0.41451401 -0.27007699
-0.30892700 -0.65904200 -0.33493999
-0.27801201 -0.36874700 0.11384500
-0.24420100 1.33886504 0.86413002
-0.46967301 0.78363401 -1.43743002
-2.36791992 2.30103111 1.52964306
0.20880400 1.53561795 -0.32373101
0.51877803 -1.84957302 -1.22183800
-0.70886600 0.40797901 0.82269400
0.04267900 -0.27105600 -0.06840200
0.09862300 0.40790799 0.08818700
-0.70912898 2.26044512 -0.84828800
-0.87805700 -0.83945501 2.10861111
1.75046802 0.89510298 -0.50771302
0.08821300 -2.57174993 1.69821000
1.71099102 -0.12853500 0.27241299
-0.25528300 0.97614700 0.04634700
-1.37090600 -0.96443802 0.33173701
-1.43265295 0.13754299 -1.23263502
1.11617696 1.89810598 0.16561800
0.29996699 -0.64589798 0.94031698
-0.65368903 0.21737000 0.96527201
-1.28874898 -0.94104099 -0.73651999
1.67025197 -1.24722505 -0.18980500
0.35901299 -0.26461601 0.42847699
1.78809404 -0.24562199 -0.25355199
0.04813900 0.63081402 0.74158198
-0.86368603 0.65005398 0.17972900
-0.51086003 0.53166699 -0.05542000
0.19331500 0.63984001 0.46981901
-0.15894000 0.77092600 1.16133499
-0.59628999 0.19110200 -0.80588597
0.13185100 1.37813497 1.39312506
1.43159401 -0.91544199 -1.34046400
-1.00247097 1.35490203 -1.35639596
1.74614203 0.64892501 -0.41433400
-0.37874600 0.73916000 0.15383400
0.13202301 -0.59932500 -1.21822000
-0.64462501 -0.41080499 -0.30524400
-2.03316903 0.05745000 -1.99061894
0.00729800 0.18671399 0.40303099
-1.33738506 -0.70389903 2.16546202
-0.63889802 0.35648799 1.50423598
-0.82169503 0.56009001 0.61936301
-0.27995801 0.94765502 0.46388900
0.51197600 0.80686301 1.30842400
0.02848200 1.44876099 0.24039100
-0.73342198 -1.03735006 -0.95574498
0.49651799 0.51555502 1.24094296
0.56051999 -0.78140599 1.79405105
0.53799897 -1.79084897 0.47474399
2.58039403 1.51737702 -0.74818498
-1.69811296 0.05051600 0.12815399
3.47647905 0.18172200 0.07531900
-0.45828301 1.06468904 -0.89975399
1.95973301 2.14221406 1.76936603
2.35889292 -0.56813997 -0.35479799
-1.35682702 -0.20683500 0.08152300
0.36453399 1.24141395 1.73532200
-0.53516400 -1.39104998 0.63225001
-2.44050002 -1.07139599 -2.42674708
-1.41471696 -1.11830699 0.36447999
-0.06881200 -0.80839002 0.08099300
1.14933503 -0.81117803 -2.96639299
1.81660497 0.22577301 -0.76324600
0.82729799 1.49373603 -1.41590202
1.48686194 2.03101707 -0.79744500
-0.45398101 -1.80787802 -0.55563301
1.83851898 -1.35394001 2.73886108
-2.11884093 -2.38593602 -0.06459800
-0.36628199 -1.82311296 0.15309200
1.18524599 -1.57853103 0.03005500
1.52827704 -0.90718502 -0.91920799
-1.50674105 -2.65179491 2.70801806
0.42552400 -0.52094799 0.36727500
0.01087300 -0.94525898 0.13932200
1.21875405 1.05307603 -0.25018701
-0.81648499 3.27751207 1.48290002
1.67170799 -1.35586596 -0.36336100
-2.62442398 -0.30642599 2.51337194

0.00713660  0.01313371  0.00254818  -0.00529401  -0.00046334  0.00565594 

0