111  4  Ta 22 Ti 23 V 73 W 74   -970.87011866  66.05834234  66.05834234 
1.0
11.82004818 -0.17243580 -0.19064563
-0.26365299 12.19782446 -0.18651661
-0.10100063 -0.26796588 12.16074487
Ta Ti V W 
25 25 25 25 
Cartesian 
1.65192997 7.15525007 10.39480972
9.82524014 10.34391975 1.25477004
7.84766006 6.25194979 2.90063000
6.15558004 6.25933981 -0.10001000
6.90546989 10.42953968 1.00759995
8.75644016 11.05074024 5.84264994
9.24567032 2.47783995 6.29740000
5.55980015 7.72692013 2.13786006
3.33277988 6.04035997 0.13382000
9.21243954 6.39422989 7.91529989
5.85707998 6.43685007 5.95977020
3.13822007 3.45302010 2.64346004
4.67579985 1.89042997 0.96170002
6.70864010 9.14408970 5.14640999
11.59523010 -0.06814000 0.05620000
2.50120997 10.06807041 8.86240959
4.59028006 8.58413029 10.62530994
1.18418002 11.05457973 4.74614000
11.33106041 5.01690006 2.28866005
11.48476028 5.82828999 5.99212980
7.62854004 7.58789015 9.73876953
11.49701023 8.32227039 -0.21635000
0.12181000 5.70838022 0.14110000
3.94754004 11.18647003 4.38609982
1.41892004 7.85737991 4.41955996
7.57115984 9.27408028 7.54775000
9.60513973 9.69909954 10.31540012
3.04447007 0.12759000 2.63776994
7.25014019 3.92718005 7.49775982
10.48886013 6.93080997 10.27353954
11.31237030 0.89867002 5.30017996
6.55972004 0.45857999 2.53904009
8.17463017 8.07112026 0.44495001
8.65822029 2.78635001 1.68271005
8.89616013 0.44793001 -0.00110000
2.61933994 11.63228035 11.22344017
3.12681007 6.43918991 3.06100988
10.49048042 1.67594004 2.72223997
8.33117008 5.16328001 10.29257965
5.80277014 2.74334002 9.27013016
3.74818993 0.60334003 7.16076994
6.17663002 6.10633993 8.85943985
1.50652003 1.56500995 4.17767000
6.83072996 10.16077042 9.84757042
4.01823997 7.37767982 7.97175980
2.28624010 5.42322016 6.13304996
0.80733001 4.25333977 4.33621979
2.06775999 3.10393000 8.58924007
-0.29605001 11.30459976 7.76072979
11.11740017 2.96475005 0.52958000
10.22758961 0.96272999 10.46788025
4.59388018 11.03015041 1.24485004
6.20283985 2.74411988 3.04890990
7.18320990 4.10902023 4.58191013
9.13842010 5.23604012 0.62971997
9.66125011 3.96366000 8.42078972
10.35079002 1.54716003 8.08880043
9.99777031 10.38286018 4.54425001
8.39783955 11.71294022 3.03088999
8.73797989 -0.24064000 9.04973030
8.04677010 1.46677005 4.86102009
10.46597004 3.43655992 10.38696003
8.77381992 5.36687994 5.62256002
4.64951992 4.72904015 4.72876978
2.91874003 9.44293976 2.93761992
1.03600001 10.48715973 1.19552004
11.40662003 11.70471001 2.62614989
5.02749014 9.68276978 7.60281992
11.23999023 8.98213005 3.02848005
3.46186996 1.37810004 10.63877964
1.11460996 1.10827994 7.32977009
1.47084999 6.93864012 7.61348009
0.42329001 9.91792011 10.11462021
-0.11690000 8.40989017 8.66755009
7.36801004 1.00608003 7.67156982
4.58971977 1.34756994 4.25266981
5.75093985 2.56427002 6.15538979
5.92552996 11.57709026 5.92917013
2.77362990 9.28009033 0.13829000
5.94390011 0.08302000 11.63253975
9.06128025 8.34945011 5.64245987
8.07281017 8.95110035 3.10974002
6.45716000 3.64558005 -0.15029000
1.60030997 1.41048002 1.17098999
5.50473022 4.76167011 2.21062994
4.17081022 7.95320988 4.51511002
2.56579995 9.41454029 6.04840994
7.85278988 1.71349001 10.32077026
5.37266016 -0.18660000 8.93809986
4.43897009 4.49380016 7.43031979
2.96216011 2.93618011 6.01881981
4.15121984 4.14248991 10.67416954
0.27304000 3.51201010 6.60987997
-0.06240000 9.45934010 6.44061995
1.02962995 0.91597998 9.89115047
1.58250999 3.90253997 11.09171963
-0.09228000 5.31936979 9.00526047
10.22136021 3.79940009 4.07212019
1.40181994 7.45137978 1.77581000
10.35340023 7.40501022 1.75225997

0.80481398 -0.16677700 -0.68807501
-1.10280895 -0.91622102 0.49926600
0.75423199 -0.20921899 0.30837500
0.76209998 0.63608801 -1.22880995
0.18876700 -0.50115502 -0.98967898
-1.50771594 3.16098499 2.94860411
0.10466400 0.68383998 -0.40364000
-0.05325900 1.81358504 0.07055400
-0.53231901 1.09340703 1.69810498
-0.54507798 1.35272706 -1.02712095
1.76860595 -0.34189999 0.68039399
-0.37924999 -0.61469001 0.11611100
-1.19269800 0.76301903 0.19892301
-3.75391006 -0.32613701 -0.76820701
0.45612100 -1.11842895 -1.00258601
0.47178301 -0.33564699 -0.70190901
0.23506300 -0.10948500 0.48980799
-1.02831197 0.85212898 -0.54759902
-0.19506000 1.01333797 0.18939900
-2.27457404 1.64752400 -0.48343700
0.03713600 2.38460803 2.05075788
1.97596502 4.66389418 0.93607301
0.32884499 0.01909300 -1.72210503
1.32471299 -3.09350801 0.89088100
-2.06534600 -0.78470403 1.31254697
0.58118403 -0.32265800 0.82860202
-0.39180499 0.71688300 -0.37210000
-0.95499402 -0.50601798 -1.88492405
0.38932800 1.42797196 0.01137200
-1.86331904 -1.53182805 -0.82877803
-2.05395794 -0.67176002 0.05785600
0.02513500 -0.28146800 0.07625000
0.40058199 -0.55116802 -0.97991598
-1.45624304 1.19405305 0.12971701
-1.15433502 -1.36044598 1.75125003
0.13288601 -0.92331398 1.44177997
0.68765801 -3.15693903 -0.48739699
0.55765700 -1.62039196 0.07314100
-0.98232901 -1.48582196 0.93418598
-1.73474598 -0.76343101 -0.18291301
-0.33423501 -0.49483201 0.43717301
-1.31992698 -1.36963606 -0.27328399
0.99311602 0.39969200 -0.05741800
-0.40625900 0.94686502 1.44572902
-1.13776600 0.11703400 0.04300200
1.64757299 1.17006898 -0.51471502
3.12856388 -0.31764001 -0.83623898
0.30822301 0.68732202 1.12362397
-0.72088498 1.48411798 1.61006296
0.70390201 -1.30526495 -1.20746195
1.43452799 0.23966600 -1.29295397
-0.70546299 -0.75259602 -0.57375002
0.05117800 -0.06078900 0.25931901
0.99234301 0.45777199 0.45359299
-0.17098799 0.39066300 -0.08895600
-0.04827900 -0.67204499 -1.21255195
1.27552104 -1.27425396 1.40436494
2.74293804 0.65672499 -3.04650593
0.35857099 -0.30503401 0.56291002
0.35773501 -1.06739795 -0.48450601
-1.31418097 -1.12762594 -2.83621001
0.34635299 0.01949100 0.87553298
-0.34357899 0.18055600 -0.13950600
-0.37029001 -0.45645100 -1.35844696
-0.57450402 -0.68681198 -0.43889299
0.48957399 0.51512003 0.61087900
1.05169106 0.48556301 -0.44356301
-1.15386105 0.36006099 -0.32517400
1.08638501 1.71572804 1.15454304
0.43447399 1.37233198 -1.04630196
0.91317803 0.64353698 -0.19253600
0.24988900 1.27541900 0.15838800
0.01331800 1.39102495 2.37607503
-0.34538499 -0.68470401 -1.20995903
-0.30272701 -0.10772800 -0.55189598
0.01017500 2.51710010 0.40419701
1.11309004 -0.88240403 -0.15983000
1.11624300 1.96870196 0.67865402
0.21430500 -0.29745099 -0.89143002
0.57362700 0.08408400 -0.79977697
1.46939504 -2.77735710 -0.15614600
1.40015399 -0.67995501 -2.07929707
0.30620900 -0.79405600 0.45415401
0.47316200 1.91494596 -0.30558699
-0.36790201 1.57922995 -0.77756900
1.30672204 1.06227696 1.60007298
1.90584695 -0.47850999 2.14990401
-0.15748300 1.29038000 -0.03948800
0.43040299 -0.67481703 1.04660106
0.50224102 0.41028699 1.53215206
-0.40153599 -0.93067098 -0.77236903
1.13499498 -0.61954200 -0.63668197
-1.21197605 -0.58241898 1.53624701
-0.33130199 -3.65880108 -1.42393696
-0.30184299 -0.58895600 0.36524999
0.06529000 -1.25291502 -0.81043899
2.13317490 -0.44742200 0.28952199
-3.96207094 -0.46783301 2.05129695
-0.46330300 0.93197101 -1.76682901
-3.04344797 -2.18057108 0.71852899

-0.00496445  0.00064193  -0.00559274  -0.00448483  -0.00415490  0.00238967 

0