111  4  Ta 22 Ti 23 V 73 W 74   -1099.23492248  62.12495384  62.12495384 
1.0
12.38281200 -0.11632289 -0.10765600
-0.00000000 12.46273100 -0.28386483
-0.00000000 -0.00000000 12.53988200
Ta Ti V W 
28 28 28 28 
Cartesian 
4.92474985 4.78985023 1.24617004
2.83297992 5.97106981 12.20468044
12.38014984 6.29123020 -0.22221000
12.30311012 9.41022015 12.13965988
10.95244980 4.29214001 10.92154980
7.68646002 8.03800011 10.55807972
4.70562983 4.31699991 10.68050003
1.51398003 8.08440018 10.64850044
6.19565010 9.27812958 9.24825001
0.15130000 6.28072023 9.24789047
11.16104031 4.26905012 8.01836967
10.85509968 7.91277981 7.69460011
4.48461008 1.81335998 8.23676968
9.50718975 3.08843994 6.29929018
6.33527994 12.02688026 8.89435005
2.96058989 6.17221022 6.48106003
6.25942993 9.34014988 6.13935995
0.17535999 9.53921032 2.91480994
2.99722004 9.31484985 3.16378999
6.04674006 9.33162022 2.79200006
6.07224989 6.19310999 2.95931005
6.25093985 3.20840001 3.14701009
11.08670998 4.06789017 1.26568997
10.67897034 10.74674988 4.42827988
10.90030956 7.83682013 4.44234991
0.03742000 3.26571989 6.06132984
12.37032032 0.06628000 6.21013021
1.48529994 7.68252993 4.61324978
4.97868013 4.29372978 8.29024982
7.86191988 7.67666006 7.81725979
3.01063991 6.01135015 9.24308968
2.63978004 3.28129005 9.23931980
6.10647011 6.15626001 9.49190998
9.37821007 6.14831018 9.47558975
12.14363003 12.18766975 11.44522953
4.94116020 1.31900001 10.76031971
2.85393000 0.20497000 12.34241009
5.93343019 6.63300991 12.13467026
5.60865021 11.57726955 11.87310028
1.91656005 10.48890972 10.77993965
6.31601000 2.98099995 6.08561993
9.75148964 9.69143963 11.81221008
0.18092000 5.93751001 6.12305021
1.73242998 7.88164997 0.97697002
4.88998985 1.47955000 1.39260995
10.86324024 7.77149010 1.60696995
3.31376004 3.22691011 6.67612982
6.39560986 12.25035954 2.82628012
9.20149994 9.31019020 2.78900003
3.03546000 3.00038004 2.97556996
4.46890020 10.82355976 4.27686977
4.26468992 4.49113989 4.57812977
8.01797962 4.58276987 4.76536989
7.74792004 1.29970002 4.53985023
10.98750973 1.59963000 4.42615986
1.87926996 1.36942995 4.50129986
1.63773000 1.43954003 8.02822018
4.66838980 7.54817009 7.75502014
7.87585020 4.55462980 7.72063017
0.10929000 12.10128975 9.11773968
9.45401955 0.24996001 9.23165035
8.89577007 0.21312000 11.96434021
10.99524021 1.73256004 10.43601036
3.10365009 3.30283999 -0.07353000
6.04053020 2.85213995 -0.07477000
9.29269981 2.55340004 12.06445026
1.44881999 8.05650043 7.55944014
11.30737019 7.79175997 10.50697041
9.19997978 0.41431999 5.99410009
3.00290990 12.27816963 9.48301983
3.24170995 0.16309001 6.66560984
1.46574998 10.91005039 1.33065999
0.97810000 1.29454005 1.58537996
4.41641998 7.57017994 1.12346005
5.95106983 5.98959017 6.41114998
10.59247017 1.31832004 1.06579006
0.12586001 6.29742002 3.02072001
10.73276997 10.88986969 1.10730004
12.10711956 12.25679016 2.31058002
3.34943008 0.47670999 2.59493995
4.48718023 7.44145012 4.68183994
7.93693018 10.86456966 4.26585007
12.21714973 9.18453979 6.05012989
0.16077000 2.91990995 3.22080994
2.96988010 9.26373005 6.05947018
6.09511995 12.30342007 5.76112986
9.27490044 9.44184971 5.83287001
9.26741982 6.13119984 6.40934992
4.49970007 10.92276955 7.39495993
7.71867990 11.01325989 10.57254028
3.33696008 9.06847000 8.88531017
9.26860046 3.05472994 9.14091015
1.32699001 1.27090001 10.72395039
4.48150015 7.87931013 10.86025047
10.65489960 4.52185011 4.38092995
7.70614004 1.35022998 7.75500011
7.80765009 7.71608019 4.63155985
2.90947008 6.27195978 2.80408001
1.59835994 4.46222019 4.32907009
1.28658998 11.08633041 4.49236012
9.33742046 12.19849968 2.73221993
9.58026981 2.85637999 2.86928010
9.16613007 6.02770996 2.93918991
7.81556988 1.46701002 1.32257998
7.84617996 4.71078014 1.06148005
7.94761992 7.65431976 1.21311998
7.74995995 11.10426044 1.03099000
4.41863012 10.62043953 1.35652006
1.51771998 4.48014021 1.41980004
7.73291016 4.77159977 10.85237980
4.60401011 1.46486998 4.88266993
9.56962013 6.19118023 -0.18756001

-2.72301507 -1.94756901 0.64967299
0.97977000 -0.31622899 -1.59701002
-0.05668300 -1.43617296 -0.31128100
0.01807700 0.60539597 0.85416901
0.91594601 0.74888498 0.15643400
2.65609598 -0.96052003 2.53359509
-0.46267799 -0.69309300 2.06908011
0.96241498 -1.37521398 -1.16034603
-2.70700788 1.70992005 -1.77658105
1.08647001 -0.60259902 0.15155800
-0.16946800 0.80515099 -0.02068300
-0.23644499 -0.47994000 0.35293099
2.25589991 -3.76840711 -0.73108602
-0.31607300 -1.77745295 0.29941899
-0.10703800 0.94139802 -1.08162296
0.03047900 -0.59669697 -0.58410102
-0.36590400 -0.23126601 -0.47290900
-1.64302802 -1.14870906 -0.62948900
0.32698801 -0.68070197 -2.04288006
2.05203605 -2.02267408 0.11862200
1.27410805 0.98717898 0.85123801
0.59619701 -1.17770004 -0.57606399
-0.43851399 1.56095803 -0.12886401
2.95019698 2.59318399 -0.44052699
-0.73194498 -2.77344394 0.65109599
1.53333604 -1.99822998 0.73490298
-0.30243099 0.32280499 1.53903401
-0.43461499 0.22394200 0.32263801
1.52859795 1.34309697 -1.93334496
-0.20611100 0.51055998 -0.82263702
-0.00837100 0.96080500 0.06224400
-2.30837607 0.52681601 1.24799395
0.70657498 1.37658000 -1.43044400
0.44814199 -0.10467400 -0.56008703
-1.35667801 -1.14231396 2.16310596
-0.55069602 1.11415100 0.63725698
0.86025900 -0.36047199 2.13040090
2.73409295 -1.55537403 1.87616503
-0.21409200 0.13867299 -0.17987800
1.01056802 1.39691103 0.22726899
-0.31117800 0.50871199 0.97146398
-1.62156701 0.13449000 0.39103800
-1.15061402 1.39447606 0.67650098
0.32719800 1.69299603 1.93334997
0.17705400 0.09827500 -0.31992900
0.04208700 -0.61765498 -1.45802402
-2.16768694 0.12525900 -1.89245796
-1.95163000 0.27070200 -0.96144998
-0.61669898 -0.74778003 -0.59784502
1.01150596 -0.55891001 -2.02723503
0.47081000 1.59976602 1.49646795
1.99739206 1.25008094 0.52963102
-2.40283298 0.64836401 -0.44352001
0.77631199 1.70693505 -0.41834199
-0.21090500 -2.51650500 0.28714100
-1.37803805 -0.54608798 1.23929596
-0.54688603 0.09833500 -0.51188898
0.77508199 -0.16594601 -1.04364395
-0.72532201 0.65630198 0.40407401
0.08931900 -0.33885199 -0.91883701
-0.27465099 -0.31223801 0.14562900
0.63078302 -0.24410100 -0.00885900
0.33989301 -0.82742798 -0.88697302
0.21407500 -1.63380396 -0.42874700
1.65388703 0.47175899 -0.30809399
-0.76855499 1.69726503 0.44323200
-0.76569599 -0.74208802 0.95583701
-1.83931303 -0.07138100 -0.22735400
0.95865297 -2.04517198 1.03126204
1.32555401 -0.16916500 -1.50373805
-2.19618511 -0.20355000 -1.32007205
0.50150597 1.33726299 -1.10741699
0.98530400 1.20846999 -1.48400199
-0.30252701 1.48179603 1.44182599
0.68065298 0.34628400 -0.87913299
1.81095004 -0.42002100 0.02382900
-0.93339700 -1.57193804 -0.60399300
0.09111300 -0.00873900 -0.24656700
0.54996097 0.15176500 1.11213696
-0.44532201 -2.12796903 0.75498003
0.84988099 1.29904401 0.01392100
-2.10201001 -0.47929099 0.71614200
1.50843298 1.31795394 -0.27858201
-0.40981299 0.01727300 -1.62873101
0.55831099 0.38907599 0.01805100
0.79679602 -0.49236301 1.71015799
-1.63502800 -1.11793602 2.62163591
0.87373698 0.28519201 -1.78009605
0.70721102 -0.85794699 0.74513400
2.23313904 -1.45129395 0.51601899
-0.69097799 1.72583902 1.15296197
-1.39273703 -0.90305001 1.81302500
-0.94111800 1.71970403 -0.70751202
-1.45910001 0.69773501 -0.45916000
3.41882801 1.59328103 0.35663900
-0.12581700 0.94635701 -0.12596101
-1.55983496 -0.25569499 -0.52753502
2.00890994 -1.01561296 0.08144400
-0.15706600 2.27495193 2.04629111
1.73979104 0.35167700 0.83884603
-0.65674001 2.24467301 -1.28025103
-3.65382695 0.66352201 -0.78390902
1.15066397 1.28859699 -0.74626100
-1.15761006 -0.04339600 0.72152799
0.38122600 -1.36027002 0.91982800
-0.90603101 0.77837300 0.01955300
-0.48479399 -1.52058196 -0.65273601
-1.22609997 0.38522100 -0.27644399
-1.11493897 0.64777601 -0.43535101
-0.15339801 -1.85745800 0.21574999
0.64558202 0.59482098 -1.72936404
-1.43555105 0.39486599 -0.48634499

-0.03305611  -0.02821785  -0.02954095  -0.00293851  -0.00214586  -0.00412169 

0