111 1 Fe 26 -1054.45366688 0.024592063999989477 0.024592063999989477
1.00000000 
     11.3365200000       0.0000000000       0.0000000000
      0.0000000000      11.3365200000       0.0000000000
      0.0000000000       0.0000000000      11.3365200000
128
Cartesian 
0.00080 11.33350 0.00027 
1.41714 1.41645 1.41690 
0.00385 0.00027 2.84012 
1.41595 1.41490 4.25217 
11.33612 11.33507 5.66805 
1.41687 1.41727 7.08414 
0.00348 11.33204 8.50300 
1.41852 1.41618 9.91850 
11.33630 2.83753 0.00086 
1.41839 4.25160 1.41698 
11.33528 2.83612 2.83539 
1.41594 4.25324 4.24599 
0.00142 2.83597 5.66685 
1.41597 4.25112 7.08524 
11.33333 2.83570 8.50494 
1.41706 4.24950 9.91779 
0.00095 5.66678 11.33306 
1.42025 7.08687 1.41511 
11.33467 5.66918 2.83259 
1.41336 7.08430 4.25572 
0.00135 5.66632 5.66591 
1.41521 7.08792 7.08625 
0.00126 5.66755 8.50124 
1.42018 7.08653 9.92028 
0.00000 8.50343 0.00115 
1.41845 9.91862 1.41959 
0.00080 8.50302 2.83555 
1.41590 9.91989 4.24694 
11.33517 8.50361 5.66710 
1.41745 9.92064 7.08254 
0.00188 8.49966 8.50137 
1.41936 9.91735 9.92166 
2.83220 11.33178 11.33450 
4.25121 1.41618 1.42021 
2.83435 0.00219 2.83526 
4.25048 1.41617 4.25065 
2.82863 11.33383 5.66928 
4.24942 1.41943 7.08492 
2.83577 11.33612 8.50333 
4.24908 1.41846 9.92295 
2.83369 2.83448 0.00274 
4.25002 4.24971 1.41489 
2.83223 2.83361 2.83657 
4.25061 4.25025 4.25442 
2.83328 2.83597 5.66863 
4.24967 4.25545 7.08680 
2.83104 2.83692 8.49931 
4.25080 4.25083 9.91705 
2.83633 5.67109 11.33403 
4.25287 7.08530 1.41800 
2.83092 5.67199 2.83257 
4.25020 7.08336 4.25150 
2.83086 5.67171 5.66889 
4.24991 7.08231 7.08523 
2.83215 5.66803 8.50358 
4.25419 7.08583 9.91924 
2.83462 8.50307 0.00125 
4.25585 9.92174 1.41638 
2.83263 8.50403 2.83708 
4.24973 9.91950 4.25140 
2.83540 8.50166 5.66498 
4.25274 9.92234 7.08721 
2.83406 8.49989 8.50150 
4.24810 9.92153 9.92014 
5.66846 11.33571 0.00069 
7.08659 1.41826 1.41839 
5.66788 0.00123 2.83386 
7.09184 1.41721 4.24918 
5.66689 11.33391 5.67086 
7.08435 1.41763 7.08634 
5.66562 11.33300 8.50044 
7.08468 1.41910 9.92056 
5.66878 2.83467 11.33355 
7.08752 4.24945 1.41523 
5.66836 2.83800 2.83242 
7.08405 4.25259 4.25180 
5.66982 2.83227 5.66543 
7.08403 4.25325 7.08616 
5.66575 2.83405 8.50163 
7.08596 4.25554 9.91891 
5.66894 5.66632 0.00313 
7.08396 7.08638 1.41577 
5.66871 5.66845 2.83883 
7.08295 7.08269 4.24776 
5.66528 5.67159 5.67019 
7.08713 7.08692 7.08633 
5.66869 5.66613 8.50196 
7.08426 7.08515 9.91396 
5.67080 8.50388 11.33520 
7.08784 9.92104 1.42070 
5.66902 8.50491 2.83374 
7.08298 9.91376 4.25219 
5.66549 8.50186 5.66827 
7.08431 9.91968 7.08259 
5.66875 8.49697 8.50227 
7.08432 9.91900 9.91947 
8.50038 0.00273 0.00327 
9.91781 1.41983 1.41492 
8.50383 0.00329 2.83448 
9.92044 1.41910 4.25095 
8.50063 11.33441 5.66995 
9.92029 1.42148 7.08426 
8.50017 0.00470 8.50339 
9.92176 1.41908 9.91807 
8.49813 2.83387 0.00185 
9.91997 4.25074 1.41406 
8.50197 2.83748 2.83271 
9.92275 4.25133 4.25226 
8.50595 2.83622 5.67003 
9.91987 4.25252 7.08322 
8.50331 2.83332 8.50407 
9.91714 4.25323 9.92168 
8.49841 5.66801 0.00101 
9.91596 7.08457 1.41526 
8.50201 5.66643 2.83150 
9.92147 7.08597 4.25187 
8.49951 5.66771 5.66741 
9.91844 7.08626 7.08717 
8.50054 5.66485 8.50127 
9.92008 7.08458 9.91826 
8.50343 8.50346 11.33377 
9.91430 9.91621 1.41482 
8.50150 8.50121 2.83545 
9.92067 9.92084 4.24880 
8.50214 8.50011 5.67313 
9.91799 9.91936 7.08566 
8.50296 8.50225 8.50222 
9.91947 9.92145 9.92148 

-0.010829 0.034136 0.014815 
-0.011452 0.001945 0.004009 
-0.062007 0.007011 -0.093773 
0.011039 0.034632 0.003981 
-0.013533 0.017805 0.008098 
-0.013874 0.002903 0.019112 
-0.033533 0.043910 -0.009073 
-0.020146 0.010694 0.013987 
0.010352 -0.040747 -0.013003 
-0.011802 0.010534 -0.006783 
0.015481 -0.020041 -0.029788 
0.017880 -0.012392 0.046678 
0.001436 -0.013659 0.011091 
-0.001174 0.010963 -0.009188 
0.033441 -0.012910 -0.029224 
0.002805 0.019009 0.021023 
0.000937 0.028912 0.030877 
-0.043960 -0.010769 0.018580 
0.011829 0.009493 -0.016848 
0.025466 0.019401 -0.053944 
-0.022587 0.028413 0.035242 
0.011718 -0.023074 -0.018510 
-0.016174 0.006890 0.011036 
-0.031550 -0.011440 -0.005930 
0.000436 -0.020398 -0.007559 
-0.015564 0.007952 -0.011192 
-0.019476 -0.016506 -0.034107 
0.013222 -0.014631 0.054683 
0.004632 -0.001108 0.017208 
0.000992 -0.034215 0.028723 
-0.016352 0.039186 0.019178 
-0.022711 -0.002552 -0.032577 
0.021394 0.056080 0.043876 
-0.003111 0.012789 -0.036504 
0.004020 -0.021776 -0.014776 
0.009304 0.006717 0.022431 
0.058666 0.030040 -0.013616 
0.002237 -0.018005 -0.002521 
-0.023186 0.010085 -0.014627 
0.011140 -0.011967 -0.036026 
-0.000952 -0.008043 -0.027860 
0.005662 0.024300 0.035859 
0.016336 0.010769 -0.020782 
-0.013318 0.021474 -0.027967 
-0.001933 -0.007854 -0.011493 
0.004249 -0.040526 -0.029103 
0.023073 -0.031332 0.028478 
-0.002234 0.005026 0.026841 
-0.009212 -0.030619 0.017324 
-0.005787 0.014098 0.000742 
0.036418 -0.031529 0.013080 
-0.004531 0.025287 -0.010855 
0.010791 -0.038079 -0.005037 
-0.003706 0.037099 0.009233 
0.010208 0.010790 -0.012284 
-0.018421 -0.008205 0.009044 
0.027782 -0.004332 0.000611 
-0.049445 -0.025826 0.016504 
0.029671 -0.018206 -0.031835 
0.008609 0.005356 0.000535 
-0.017525 0.014908 0.039554 
-0.036066 -0.055122 -0.017471 
0.014336 0.030953 -0.001945 
0.042017 -0.043543 -0.012336 
0.006084 0.021258 -0.005343 
-0.031797 -0.002784 -0.004659 
0.023044 -0.000821 0.025741 
-0.065770 -0.000863 0.028891 
0.012837 0.039026 -0.044594 
0.001412 0.003737 -0.013401 
0.022597 0.048147 0.037065 
-0.016183 -0.020342 -0.015919 
-0.012145 -0.003668 0.028878 
-0.042220 0.025544 0.024091 
-0.000380 -0.035052 0.022666 
0.015653 -0.014558 0.004325 
-0.011669 0.019810 0.028545 
0.001584 -0.033399 -0.018108 
0.019133 0.002410 0.005476 
-0.019636 -0.053096 -0.000126 
-0.007920 0.022411 -0.036565 
0.009014 -0.005810 0.010177 
-0.019837 -0.015306 -0.061683 
0.025040 0.027529 0.044049 
0.027084 -0.034540 -0.012729 
-0.026315 -0.024467 -0.016190 
-0.011044 0.020977 0.002764 
0.015975 -0.007053 0.059495 
-0.016885 -0.009419 0.008946 
-0.017523 -0.010369 -0.031355 
-0.019156 -0.028239 0.003041 
0.028619 0.058334 -0.000787 
0.013351 -0.011337 0.002927 
0.002541 -0.013831 0.046269 
-0.014811 0.064344 -0.009185 
0.009233 0.015797 -0.011864 
0.017803 -0.014782 -0.041190 
0.039925 -0.030051 0.028297 
0.000404 -0.034465 0.009140 
-0.009147 -0.013737 0.010188 
0.022358 0.023478 -0.022233 
0.005007 -0.051985 0.015703 
0.023929 -0.043517 -0.004137 
-0.016619 -0.023764 0.030599 
0.042737 0.010249 -0.037233 
-0.005623 0.016060 0.021255 
0.019377 -0.011314 0.022424 
-0.045566 0.013992 -0.021748 
-0.041301 -0.008004 -0.019198 
-0.003485 0.000182 0.022897 
-0.019096 0.026748 -0.014099 
0.007044 -0.013573 -0.019582 
0.032361 0.020591 -0.024606 
0.037567 0.004557 0.007325 
0.008858 0.018093 0.026613 
-0.040693 -0.015404 -0.006234 
0.030267 0.013980 -0.000256 
0.014540 -0.029275 -0.022310 
0.028948 0.037025 0.003753 
-0.008192 -0.001323 0.006308 
-0.028481 -0.018300 0.010138 
0.061388 0.046021 0.043369 
0.010113 -0.000866 -0.003784 
-0.035375 -0.017247 0.030333 
0.001906 0.014413 -0.066281 
0.012214 0.011381 0.011989 
-0.000896 0.017366 0.009072 
-0.003809 -0.010855 -0.031260 

-0.0020235624999999998 -0.00202466875 -0.00202495625 1.9375e-07 -3.125e-08 8.5625e-07 

2