111 1 Fe 26 -1053.80325355 0.6750053939999816 0.6750053939999816
1.00000000 
     11.3365200000       0.0000000000       0.0000000000
      0.0000000000      11.3365200000       0.0000000000
      0.0000000000       0.0000000000      11.3365200000
128
Cartesian 
11.32300 11.33266 11.33164 
1.43275 1.39841 1.41810 
0.01973 11.32796 2.87604 
1.39288 1.40727 4.24482 
11.32440 11.31543 5.67807 
1.38961 1.42060 7.06776 
0.03708 11.31836 8.49600 
1.42022 1.38824 9.90676 
11.32212 2.85990 11.32712 
1.43059 4.26271 1.42645 
11.32879 2.82588 2.85620 
1.40277 4.25519 4.21494 
11.33218 2.86251 5.63794 
1.40072 4.28496 7.09210 
0.00583 2.85699 8.50887 
1.39889 4.23095 9.91913 
0.01062 5.65622 11.32293 
1.43996 7.10652 1.39566 
11.31711 5.65000 2.85348 
1.38163 7.06582 4.27182 
0.00916 5.61013 5.65233 
1.38688 7.11252 7.09625 
0.01517 5.65938 8.51536 
1.43895 7.08835 9.92387 
11.32991 8.51503 0.02287 
1.44023 9.90409 1.42918 
0.00778 8.48663 2.82804 
1.43313 9.90110 4.23170 
11.32664 8.51791 5.65514 
1.41841 9.91917 7.06714 
11.33580 8.46271 8.52313 
1.41841 9.88833 9.93474 
2.81995 11.31325 11.32878 
4.26359 1.43414 1.41958 
2.82273 0.00283 2.83207 
4.25982 1.40090 4.25647 
2.79001 11.33501 5.66961 
4.27091 1.41418 7.10571 
2.83278 11.32873 8.50333 
4.23051 1.42578 9.93606 
2.82801 2.84662 0.02926 
4.25280 4.25994 1.40042 
2.80661 2.79644 2.84936 
4.22669 4.24486 4.27673 
2.82261 2.83878 5.65459 
4.26164 4.26423 7.08353 
2.83722 2.87731 8.47353 
4.24232 4.23227 9.92217 
2.84620 5.68988 11.30913 
4.26560 7.06798 1.42000 
2.80879 5.68959 2.82979 
4.24504 7.07867 4.26805 
2.79437 5.71130 5.66651 
4.22243 7.08658 7.07278 
2.82648 5.65580 8.49837 
4.26943 7.09687 9.92736 
2.85404 8.54115 0.02259 
4.26553 9.94728 1.40948 
2.82649 8.50690 2.83959 
4.21834 9.91873 4.23132 
2.84040 8.49642 5.63552 
4.26494 9.92575 7.10882 
2.83655 8.48760 8.48901 
4.24272 9.92397 9.91669 
5.64124 0.02138 11.33620 
7.08187 1.43072 1.42781 
5.67536 0.01904 2.83410 
7.13430 1.41437 4.25187 
5.67984 11.31098 5.69322 
7.07732 1.43227 7.09884 
5.63821 11.32150 8.49030 
7.05516 1.43750 9.90394 
5.66221 2.83686 0.00331 
7.11120 4.22915 1.39937 
5.66515 2.86637 2.81990 
7.08771 4.24384 4.27367 
5.68626 2.83112 5.63237 
7.07068 4.28043 7.07481 
5.66113 2.83608 8.47730 
7.07178 4.28407 9.88560 
5.66786 5.66852 0.03015 
7.08067 7.08464 1.40940 
5.65132 5.67848 2.86121 
7.06877 7.06600 4.23279 
5.64447 5.68872 5.69020 
7.09491 7.09760 7.08479 
5.68853 5.65072 8.49827 
7.07004 7.10642 9.89249 
5.69459 8.49650 11.32602 
7.10971 9.94068 1.44187 
5.66373 8.54595 2.81717 
7.05972 9.90921 4.27677 
5.64259 8.48687 5.66771 
7.06442 9.91590 7.06513 
5.67402 8.46356 8.48893 
7.08654 9.91300 9.93487 
8.48826 0.00720 0.02592 
9.90880 1.41298 1.37890 
8.51252 0.02360 2.82135 
9.92386 1.42234 4.24647 
8.49066 11.31990 5.66139 
9.92054 1.42828 7.06640 
8.50010 0.02055 8.51565 
9.93752 1.41531 9.90597 
8.46076 2.83934 0.01809 
9.91787 4.26821 1.38477 
8.51035 2.85236 2.82327 
9.93318 4.25482 4.27575 
8.52958 2.85117 5.66454 
9.91151 4.26972 7.06831 
8.49962 2.82819 8.52419 
9.90189 4.27039 9.92323 
8.49825 5.66687 11.32226 
9.90304 7.07304 1.38244 
8.49224 5.66115 2.83182 
9.93523 7.07699 4.24163 
8.46964 5.65621 5.66301 
9.93420 7.08945 7.09779 
8.50494 5.67008 8.49353 
9.94030 7.08389 9.89814 
8.47888 8.49984 11.33499 
9.88463 9.89239 1.39054 
8.50555 8.49194 2.85730 
9.93646 9.91577 4.24268 
8.49284 8.46749 5.67834 
9.92514 9.91631 7.07282 
8.50229 8.50362 8.50460 
9.89614 9.93907 9.93558 

0.171380 -0.057975 0.135505 
-0.352993 0.127745 -0.078567 
-0.310569 -0.038476 -0.646829 
0.167685 0.025974 0.204425 
0.057012 0.182233 -0.167570 
0.231927 0.147626 0.121988 
-0.413019 0.036390 0.025115 
0.004334 0.382169 0.126145 
0.172728 -0.342798 0.122397 
-0.187370 -0.088950 -0.079941 
-0.036134 0.047842 -0.508256 
0.242174 -0.106411 0.304859 
0.095461 -0.321977 0.357004 
0.176074 -0.330577 -0.191005 
-0.136093 -0.240032 -0.172431 
0.292587 0.197511 0.071310 
0.021909 0.233831 0.123264 
-0.271056 -0.260907 0.183289 
0.107136 0.239870 -0.479249 
0.198199 0.221439 -0.278036 
-0.201440 0.743226 0.265900 
0.185336 -0.249009 -0.181307 
-0.161503 0.097956 -0.108632 
-0.109755 0.007792 0.061011 
0.050625 -0.171316 -0.247383 
-0.359199 0.206705 -0.052178 
-0.142922 0.038992 -0.093741 
-0.233087 0.083137 0.219287 
0.060410 -0.227966 0.118318 
-0.003578 -0.202959 0.189189 
0.011530 0.561355 -0.128664 
-0.051221 0.160582 -0.168446 
0.117254 0.295679 0.097651 
-0.212508 -0.135182 0.057327 
0.190123 0.019381 -0.009561 
-0.060695 0.073192 0.044974 
0.477203 0.046945 0.009783 
-0.359684 0.088124 -0.363288 
-0.055219 0.069122 -0.070993 
0.009983 0.018071 -0.209438 
-0.078208 -0.149617 -0.305502 
-0.143828 -0.003794 0.347867 
0.313005 0.394785 -0.149821 
0.044099 0.139943 -0.255834 
0.014443 -0.040032 0.182770 
-0.211249 -0.052056 -0.179408 
-0.126353 -0.494569 0.179125 
0.103389 0.245462 -0.020631 
-0.068386 -0.194812 0.207806 
-0.112836 0.327711 0.052469 
0.243465 -0.162655 0.035963 
-0.056685 0.112153 -0.298199 
0.207392 -0.457927 0.067210 
0.143527 -0.051400 0.209103 
0.105043 0.211057 0.063245 
-0.127453 -0.152525 -0.102815 
0.036580 -0.416981 -0.224971 
-0.039245 -0.163666 0.102357 
0.188218 -0.197762 -0.119989 
0.332072 0.121936 0.238993 
-0.176423 0.115866 0.352737 
-0.328285 -0.197741 -0.325887 
0.003164 0.162629 0.120918 
0.159248 -0.152645 -0.010213 
0.322404 -0.141812 -0.034158 
-0.063189 -0.059554 -0.056645 
-0.005476 -0.054070 0.121220 
-0.447247 0.065418 -0.023713 
-0.224372 0.309087 -0.331539 
0.158981 -0.101559 -0.202543 
0.362263 0.121014 0.296365 
0.124642 -0.203469 0.185057 
0.038512 0.096669 -0.147059 
-0.383122 0.412277 0.248083 
0.033679 -0.217397 0.250968 
-0.096077 0.129326 -0.302380 
-0.168665 -0.038485 0.342562 
0.169196 -0.358020 0.039962 
0.017673 0.069122 0.221357 
0.038318 -0.319705 0.355740 
0.086613 -0.021602 -0.404134 
0.037310 -0.011844 0.177194 
0.119017 -0.230754 -0.233830 
0.026415 0.213689 0.173942 
0.126780 -0.179567 -0.238353 
-0.119959 -0.170575 -0.039489 
-0.373793 0.298645 0.018333 
0.211713 -0.321546 0.252520 
-0.256868 0.206190 0.173867 
-0.302055 -0.116339 -0.183971 
-0.007264 -0.410591 0.156663 
0.260301 0.050338 -0.268703 
0.109433 0.116804 -0.066370 
0.259785 -0.068534 0.347634 
-0.113479 0.439353 0.084584 
-0.148282 0.216622 -0.212767 
-0.058530 0.089531 -0.391542 
0.245614 0.106928 0.393902 
0.027638 -0.267945 0.214230 
-0.051456 -0.097822 0.044894 
0.166785 0.109755 0.108202 
0.026809 -0.055007 0.199442 
-0.040353 -0.211666 -0.178260 
-0.197943 0.090542 0.126477 
0.376141 -0.050351 -0.467536 
0.033731 -0.164188 0.333711 
0.089524 -0.080419 0.105323 
-0.346813 -0.012808 -0.426818 
-0.284240 -0.167365 0.128088 
0.008000 -0.152756 0.273838 
0.030535 0.200136 -0.288726 
0.032999 -0.208888 -0.090152 
-0.105396 0.144166 -0.079132 
0.169550 0.028996 0.324217 
0.092424 0.017591 -0.002360 
-0.248512 -0.072468 0.148035 
0.360345 0.256297 0.034195 
-0.111644 -0.187193 -0.255635 
0.020539 0.092929 -0.004774 
-0.257478 0.006201 0.287515 
0.160027 -0.061230 -0.083042 
0.395443 0.273273 0.427022 
-0.061227 0.029489 -0.168241 
-0.296522 -0.051324 0.027233 
0.127023 0.264581 -0.190049 
-0.146435 -0.023566 0.244162 
0.052727 0.115336 -0.059255 
0.189865 -0.201560 -0.205922 

-0.00086764375 -0.0008971375 -0.0009275500000000001 -5.643125e-05 -2.08375e-05 5.9775e-05 

2