111 1 Fe 26 -1051.88200236 2.5962565840000025 2.5962565840000025
1.00000000 
     11.3365200000       0.0000000000       0.0000000000
      0.0000000000      11.3365200000       0.0000000000
      0.0000000000       0.0000000000      11.3365200000
128
Cartesian 
0.04597 11.33087 11.33542 
1.37724 1.42536 1.36992 
11.33566 0.02670 2.87799 
1.46311 1.46940 4.23698 
11.30030 11.30309 5.69270 
1.43422 1.45311 7.06323 
0.07577 0.04184 8.51004 
1.42097 1.39632 9.90328 
0.00393 2.85963 0.00485 
1.42552 4.22915 1.35530 
0.04347 2.86829 2.85440 
1.36522 4.23775 4.29832 
0.00558 2.82708 5.64618 
1.36129 4.23139 7.07260 
11.30202 2.83564 8.52748 
1.42944 4.24956 9.91701 
11.31418 5.66515 11.33636 
1.36722 7.03645 1.42596 
11.33332 5.62535 2.80534 
1.38779 7.10642 4.31306 
11.32626 5.69206 5.66960 
1.37634 7.07666 7.09257 
0.03584 5.67857 8.52901 
1.39774 7.07670 9.91608 
11.32313 8.52304 11.29879 
1.43903 9.92089 1.39975 
11.31511 8.56736 2.81647 
1.47389 9.89217 4.20424 
0.04449 8.49875 5.63687 
1.40168 9.91664 7.09174 
11.28833 8.50677 8.48874 
1.46133 9.89865 9.91933 
2.82889 11.32780 11.33362 
4.26206 1.39852 1.43441 
2.84761 0.02483 2.79681 
4.23123 1.34241 4.27468 
2.85677 0.02760 5.65291 
4.26287 1.52973 7.09036 
2.84147 11.32863 8.47078 
4.25865 1.44270 9.91345 
2.82593 2.85235 11.32669 
4.29456 4.22236 1.45050 
2.83093 2.85482 2.79771 
4.25405 4.31044 4.25168 
2.83935 2.86466 5.65480 
4.24581 4.30747 7.08430 
2.83290 2.77268 8.53067 
4.29956 4.28155 9.84869 
2.88199 5.61010 0.01037 
4.26767 7.12747 1.41480 
2.83690 5.62737 2.86115 
4.20295 7.07409 4.21608 
2.77216 5.66926 5.68276 
4.27367 7.10427 7.04356 
2.85471 5.61954 8.49626 
4.23427 7.10461 9.87059 
2.89070 8.47190 11.26426 
4.20858 9.97702 1.42969 
2.80011 8.54774 2.81899 
4.29734 9.93701 4.30170 
2.78277 8.50197 5.67694 
4.27978 9.90139 7.09737 
2.87418 8.52939 8.54568 
4.25147 9.92770 9.90625 
5.70630 11.30432 0.04540 
7.08457 1.45021 1.46708 
5.67454 11.32591 2.77719 
7.05452 1.43482 4.26900 
5.67159 0.03548 5.66885 
7.15032 1.40565 7.05628 
5.64014 0.05805 8.52839 
7.07020 1.38104 9.93073 
5.66845 2.78899 11.28743 
7.04203 4.21720 1.46436 
5.68860 2.78789 2.85955 
7.06056 4.28981 4.25953 
5.62489 2.80285 5.65743 
7.04115 4.23353 7.07869 
5.64555 2.90669 8.45548 
7.06954 4.27334 9.86722 
5.64154 5.73202 0.02089 
7.04641 7.13242 1.41268 
5.67129 5.67897 2.91141 
7.07080 7.07669 4.23430 
5.71269 5.65714 5.65273 
7.09493 7.05199 7.04804 
5.70901 5.62681 8.50290 
7.04124 7.17039 9.94157 
5.67337 8.45537 11.33600 
7.10110 9.93189 1.42852 
5.63680 8.47259 2.87673 
7.08899 9.96942 4.27478 
5.66354 8.51933 5.66699 
7.04676 9.93372 7.14921 
5.67657 8.48976 8.47906 
7.09649 9.88330 9.90792 
8.49038 11.31484 11.30179 
9.90922 1.40876 1.41644 
8.53614 11.32568 2.83276 
9.94637 1.43649 4.25958 
8.49392 11.28502 5.68302 
9.88280 1.41660 7.10469 
8.51783 0.02324 8.45614 
9.87819 1.39629 9.95473 
8.53306 2.78503 0.02097 
9.95773 4.28417 1.43741 
8.50195 2.84143 2.80817 
9.90720 4.29029 4.19999 
8.49368 2.85477 5.65404 
9.94231 4.24541 7.00716 
8.54135 2.84647 8.48523 
9.84517 4.22687 9.93220 
8.47632 5.68305 0.02113 
10.00401 7.07716 1.39433 
8.47455 5.64053 2.83028 
9.89266 7.04028 4.27732 
8.54669 5.64056 5.65092 
9.91876 7.05463 7.14485 
8.53511 5.68632 8.54770 
9.92181 7.05852 9.94004 
8.49556 8.46653 11.30719 
9.88721 9.93817 1.44632 
8.49392 8.54424 2.86258 
9.88245 9.88411 4.23979 
8.51471 8.52554 5.64797 
9.92155 9.91485 7.10454 
8.57183 8.43288 8.51320 
9.89236 9.86071 9.91951 

-0.638738 -0.147386 -0.119823 
0.428522 -0.011017 0.444019 
0.156480 -0.145166 -0.337197 
-0.355351 -0.574126 0.096073 
0.437932 0.355350 -0.352045 
-0.181633 -0.324270 0.036510 
-0.833340 -0.449498 -0.010400 
0.014328 0.238966 0.250756 
-0.263598 -0.296131 -0.261345 
0.055157 0.279069 0.577695 
-0.444910 -0.347379 -0.322743 
0.554373 0.280082 -0.541108 
-0.290286 -0.067075 0.169515 
0.476718 0.072396 0.313638 
0.160450 -0.018736 -0.139970 
-0.118861 -0.096986 -0.072515 
0.306998 -0.189064 -0.273196 
0.734039 0.470233 -0.168094 
0.237704 0.573332 0.488995 
0.145948 -0.304081 -1.029051 
-0.096280 -0.209717 0.046536 
0.472140 0.144931 0.286982 
-0.485524 -0.389731 -0.111819 
0.339991 -0.054918 0.032663 
0.269782 -0.107277 0.393321 
-0.277196 -0.050279 -0.076628 
0.176160 -0.685292 0.143532 
-0.556515 0.681347 0.471975 
-0.795595 0.152842 0.386502 
0.264292 0.051836 -0.050296 
0.676516 -0.017447 0.216888 
-0.421540 0.164510 -0.124967 
0.198874 0.227170 -0.185115 
-0.105512 0.357951 -0.380904 
-0.293073 -0.072951 0.374527 
0.210650 0.912566 -0.477109 
-0.275478 -0.315003 0.365434 
-0.174352 -1.090488 -0.101741 
0.126158 0.179096 0.104376 
-0.068777 -0.309997 0.179767 
0.401699 -0.263420 -0.094951 
-0.121625 0.201221 -0.333056 
0.147678 -0.160350 0.364244 
-0.159773 -0.756968 0.146750 
0.024427 0.042026 0.057750 
-0.143895 -0.386279 -0.323548 
-0.109150 0.919949 -0.333467 
-0.439339 -0.332360 0.836373 
-0.235930 0.571093 -0.116580 
-0.484443 -0.449589 0.257567 
-0.354000 0.419030 -0.347932 
0.090714 0.259445 0.561784 
0.441627 0.089962 0.014679 
-0.297944 -0.293530 0.254144 
-0.344533 0.597961 -0.109913 
0.310040 -0.493969 0.189758 
-0.628015 0.139244 0.867357 
0.542643 -0.828953 -0.239357 
0.329728 -0.629830 -0.019329 
-0.499749 -0.132050 -0.508229 
0.638856 0.054227 0.067730 
-0.263902 0.398137 -0.159280 
-0.505925 -0.422536 -0.840384 
0.398432 0.154987 0.202665 
-0.363844 0.215980 -0.520380 
0.178862 -0.491611 -0.582366 
0.019239 0.036727 0.803317 
0.525741 -0.250689 -0.164559 
0.015624 -0.258731 0.371220 
-0.734526 0.330281 0.298846 
0.281946 -0.367298 -0.300048 
0.204329 0.444109 -0.277559 
0.086426 0.493209 0.430197 
0.268255 0.350241 -0.630701 
-0.515719 0.385609 0.106126 
0.307267 -0.678392 -0.015997 
0.359441 0.543619 -0.077924 
0.771061 0.175271 -0.173241 
0.464844 -0.849819 0.350696 
0.288881 -0.272530 0.779467 
0.259078 -0.709429 -0.151149 
0.483654 -0.418181 0.400945 
-0.169936 0.015271 -0.937373 
0.330515 0.301699 0.310019 
-0.592676 0.307580 0.210655 
0.203180 0.277964 0.291763 
-0.253516 0.964918 -0.236877 
0.453624 -1.130011 -0.405592 
-0.331063 1.022222 0.115777 
-0.109177 -0.356143 -0.072189 
0.186076 0.626466 -0.330693 
-0.198537 -0.416509 -0.203043 
0.191600 -0.214895 -0.019789 
0.423032 -0.193416 -0.463317 
-0.030509 0.082399 0.100256 
-0.113776 0.340663 -0.080170 
0.049997 -0.004591 0.401723 
0.347140 0.022936 0.106394 
-0.415186 0.426714 0.217324 
-0.323837 -0.160949 -0.000093 
0.148408 0.530253 -0.186953 
0.638073 0.019561 -0.356075 
-0.131465 -0.440897 0.688254 
0.599947 -0.009085 -0.331684 
-0.627449 0.587132 -0.083881 
-0.555803 -0.481789 -0.361709 
0.107065 0.006842 0.467409 
0.089016 -0.569402 0.387464 
0.053949 -0.115914 -0.182344 
-0.179342 0.059675 0.825369 
-0.590460 -0.049005 0.098844 
0.723182 0.256013 0.041922 
-0.121098 -0.198220 0.048829 
-1.059196 0.245555 0.405448 
0.115365 0.531770 -0.236654 
0.276322 0.566341 -0.508960 
-0.585825 0.257088 0.264294 
0.134358 0.141514 -0.778026 
-0.470824 -0.308872 -0.480596 
0.069595 0.006668 0.005937 
0.136844 0.325378 0.614280 
0.400800 -0.137006 -0.521152 
-0.051199 -0.688789 -0.370492 
0.566300 0.437387 0.285011 
-0.267409 -0.417259 0.449083 
0.058433 -0.074206 -0.131909 
-0.908562 0.585261 -0.252522 
0.379254 0.778047 -0.089446 

0.00226510625 0.00214306875 0.00197428125 6.9375e-06 -4.9300000000000006e-05 -5.41875e-06 

2