111 1 Fe 26 -1053.37778343 1.1004755139999816 1.1004755139999816
1.00000000 
     11.3365200000       0.0000000000       0.0000000000
      0.0000000000      11.3365200000       0.0000000000
      0.0000000000       0.0000000000      11.3365200000
128
Cartesian 
0.03685 0.00165 11.33232 
1.39788 1.41587 1.38762 
0.00094 0.02914 2.85696 
1.43796 1.45637 4.23423 
11.32554 11.31566 5.68964 
1.43313 1.43228 7.05793 
0.03965 0.02770 8.51557 
1.41557 1.41486 9.91882 
0.00656 2.85182 11.33649 
1.42923 4.24461 1.37469 
0.03447 2.86008 2.85132 
1.37434 4.24051 4.27328 
0.00659 2.82100 5.66247 
1.39098 4.24606 7.07182 
11.31695 2.84140 8.51461 
1.40948 4.23638 9.91116 
11.32776 5.67415 11.33104 
1.38306 7.05760 1.41120 
0.00713 5.64567 2.81409 
1.40711 7.10750 4.29658 
0.00348 5.67602 5.67611 
1.40016 7.07316 7.07800 
0.02019 5.67105 8.51401 
1.41046 7.07947 9.91276 
11.33251 8.51217 11.32232 
1.42881 9.91338 1.40062 
11.32456 8.53321 2.83086 
1.44614 9.90920 4.23437 
0.02670 8.50702 5.63834 
1.40485 9.91091 7.10330 
11.30369 8.51024 8.49278 
1.44876 9.89509 9.92808 
2.83280 11.32931 11.33044 
4.25692 1.41049 1.42537 
2.83087 0.02228 2.81209 
4.24552 1.37052 4.26151 
2.84238 0.01948 5.66680 
4.25028 1.47831 7.08871 
2.85646 11.33243 8.47634 
4.25886 1.43460 9.92303 
2.82145 2.84501 0.00738 
4.27445 4.23964 1.43608 
2.83126 2.84201 2.82378 
4.25614 4.28233 4.26537 
2.83826 2.84541 5.65858 
4.24835 4.27519 7.07921 
2.84534 2.79368 8.50600 
4.28044 4.27317 9.87971 
2.85454 5.63404 0.00297 
4.26077 7.11057 1.39862 
2.83974 5.64709 2.84772 
4.23895 7.07124 4.21931 
2.78985 5.66646 5.67686 
4.27027 7.10184 7.06803 
2.84656 5.64695 8.49949 
4.24650 7.09194 9.89363 
2.87854 8.48983 11.29470 
4.23144 9.95700 1.41919 
2.80717 8.52599 2.81470 
4.27851 9.93025 4.28292 
2.81118 8.50116 5.67599 
4.27218 9.91656 7.09157 
2.85649 8.52442 8.53014 
4.24605 9.92249 9.90704 
5.69646 11.32082 0.02003 
7.09074 1.44124 1.43447 
5.67824 11.32254 2.80960 
7.06782 1.42967 4.25560 
5.68691 0.01796 5.67015 
7.11706 1.40104 7.07606 
5.64519 0.03299 8.51658 
7.07811 1.39807 9.92838 
5.67640 2.81076 11.30793 
7.06578 4.23887 1.44008 
5.68208 2.79555 2.84198 
7.06631 4.26311 4.24071 
5.65704 2.81690 5.65655 
7.05673 4.23916 7.07402 
5.65279 2.87438 8.47455 
7.07000 4.27237 9.88967 
5.66718 5.71067 0.01676 
7.05641 7.11045 1.41566 
5.67232 5.67096 2.87752 
7.09096 7.07037 4.24321 
5.68958 5.66360 5.66401 
7.09330 7.05676 7.06305 
5.68705 5.64253 8.50258 
7.05530 7.14002 9.92576 
5.66830 8.47106 0.00161 
7.09256 9.92581 1.42608 
5.66275 8.48114 2.85685 
7.08045 9.96195 4.26145 
5.66727 8.50398 5.67012 
7.05873 9.92354 7.12362 
5.67507 8.49387 8.50165 
7.07397 9.90098 9.91637 
8.49675 11.31835 11.31945 
9.92244 1.40456 1.41621 
8.52107 11.32588 2.82830 
9.94512 1.41382 4.25427 
8.49876 11.31330 5.68256 
9.90376 1.40872 7.10890 
8.51431 0.01966 8.47920 
9.89552 1.40757 9.93861 
8.51624 2.79801 0.00616 
9.93412 4.26351 1.43329 
8.49826 2.82865 2.82173 
9.92129 4.28287 4.22639 
8.50003 2.84582 5.66286 
9.92987 4.24379 7.04211 
8.53247 2.84973 8.49882 
9.87120 4.23639 9.91437 
8.49522 5.66867 0.01917 
9.96731 7.08079 1.40678 
8.49106 5.64914 2.83648 
9.90440 7.06259 4.25412 
8.53401 5.64996 5.65581 
9.92070 7.06521 7.12223 
8.52506 5.66961 8.53303 
9.91959 7.08180 9.93191 
8.49888 8.46645 11.31591 
9.90921 9.92628 1.42552 
8.50019 8.52367 2.85737 
9.89874 9.89533 4.24839 
8.51876 8.51642 5.67068 
9.91507 9.91948 7.10394 
8.53487 8.45916 8.50577 
9.91598 9.88653 9.93419 

-0.431274 -0.139193 -0.038680 
0.220469 0.091565 0.280058 
0.101315 -0.306037 -0.200494 
-0.137955 -0.448402 0.187356 
0.177001 0.190608 -0.246559 
-0.169830 -0.149358 0.247092 
-0.352013 -0.293396 -0.012021 
0.116137 0.033410 -0.034956 
-0.251912 -0.171292 -0.080179 
-0.054116 0.105756 0.417636 
-0.391588 -0.239849 -0.305512 
0.502411 0.200971 -0.244373 
-0.231292 0.039711 0.043369 
0.251708 -0.086499 0.254268 
0.132299 -0.107580 -0.130501 
0.119992 0.091845 -0.029181 
0.072086 -0.209800 -0.143217 
0.510826 0.283457 -0.011989 
0.059846 0.334378 0.274219 
0.055425 -0.279149 -0.718225 
-0.184594 -0.017516 -0.068306 
0.202438 0.211656 0.313567 
-0.269759 -0.159281 -0.043740 
0.157093 -0.010675 0.017678 
0.142009 -0.081023 0.145827 
-0.138705 0.055412 0.056575 
0.121655 -0.309250 0.010930 
-0.246904 0.359314 0.147271 
-0.473420 0.002256 0.401125 
0.195338 0.095760 -0.123209 
0.443962 -0.091833 0.149952 
-0.283307 0.244807 -0.180925 
0.117770 0.161357 -0.080681 
-0.025760 0.123997 -0.190199 
-0.034309 -0.168540 0.205231 
0.080108 0.509677 -0.205357 
-0.083405 -0.230298 0.080200 
0.095560 -0.591648 -0.146735 
-0.179591 0.135653 0.194727 
-0.067228 -0.168060 0.063882 
0.345705 -0.122221 -0.207132 
-0.028594 0.062997 -0.182136 
0.131735 -0.000806 0.107709 
-0.118586 -0.427042 -0.088096 
0.010927 0.076388 -0.008375 
-0.089409 -0.142966 -0.132083 
-0.206012 0.581607 -0.051585 
-0.286340 -0.248211 0.496552 
-0.078716 0.329625 -0.121362 
-0.266901 -0.286056 0.334571 
-0.227285 0.233073 -0.171343 
-0.087878 0.232930 0.419600 
0.422683 0.076786 -0.041940 
-0.235551 -0.228490 0.105131 
-0.190200 0.246562 -0.082907 
0.110087 -0.244000 0.095030 
-0.467506 -0.002348 0.479345 
0.286835 -0.480020 -0.045223 
0.282652 -0.309435 0.099342 
-0.306671 -0.100209 -0.326853 
0.365778 0.066851 0.009022 
-0.151560 0.126791 -0.108390 
-0.261892 -0.354658 -0.517408 
0.314410 0.123651 0.185610 
-0.291144 0.113851 -0.212161 
0.059372 -0.387561 -0.234695 
-0.083901 0.130393 0.289951 
0.373009 -0.191893 -0.036626 
-0.188848 -0.095487 0.199793 
-0.331130 0.328191 0.146707 
0.233062 -0.185219 -0.133177 
0.105213 0.253597 -0.229933 
-0.043959 0.320663 0.253069 
0.133100 0.099862 -0.327971 
-0.334659 0.339745 0.058354 
0.243877 -0.288760 0.149147 
0.068201 0.216594 0.030250 
0.486309 0.108364 -0.011781 
0.310658 -0.469171 0.204226 
0.221808 -0.225960 0.445209 
0.009626 -0.488116 -0.156088 
0.422657 -0.240721 0.232629 
-0.115328 -0.002014 -0.544672 
0.088837 0.249583 0.204829 
-0.268232 0.122937 0.037589 
0.114761 0.206040 0.203846 
-0.108979 0.539072 -0.156218 
0.346069 -0.746747 -0.153970 
-0.140779 0.642044 0.042944 
-0.012971 -0.238905 -0.088564 
-0.024089 0.393092 -0.173689 
0.046503 -0.445479 -0.016764 
0.135972 -0.062459 -0.059504 
0.311176 -0.108025 -0.229526 
-0.057733 0.071446 -0.101282 
0.148064 0.162716 -0.062984 
0.035323 0.012330 0.188223 
0.135554 0.117321 0.047179 
-0.180631 0.251730 0.134848 
-0.280957 0.057148 0.066414 
0.088473 0.242674 -0.150883 
0.320378 0.105635 -0.300210 
-0.143946 -0.369199 0.442943 
0.369624 -0.020789 -0.136937 
-0.281932 0.438821 -0.002056 
-0.185166 -0.237506 -0.243971 
0.172525 0.062310 0.236059 
-0.003277 -0.463367 0.185797 
0.044742 -0.131949 -0.135438 
-0.047610 0.060481 0.441190 
-0.486430 -0.149705 -0.035356 
0.512496 0.176176 0.202426 
-0.123204 -0.021956 -0.062604 
-0.597378 0.098274 0.231668 
0.056259 0.306497 -0.198510 
0.232402 0.251890 -0.126329 
-0.370850 0.131706 0.163677 
0.098651 0.101218 -0.476327 
-0.332768 -0.051394 -0.338804 
0.066579 -0.148156 -0.030684 
0.025237 0.354265 0.401157 
0.167271 -0.070406 -0.175298 
-0.055606 -0.344654 -0.294239 
0.315443 0.338553 0.128213 
-0.259839 -0.235042 0.116817 
0.105936 -0.052124 -0.099093 
-0.464809 0.408295 -0.075374 
0.074706 0.435446 -0.176478 

-0.00047176250000000004 -0.00053160625 -0.0005891375000000001 2.285625e-05 9.425e-06 -1.5250000000000001e-05 

2