111 1 Fe 26 -1053.21664212 1.2616168239999297 1.2616168239999297
1.00000000 
     11.3365200000       0.0000000000       0.0000000000
      0.0000000000      11.3365200000       0.0000000000
      0.0000000000       0.0000000000      11.3365200000
128
Cartesian 
11.31664 0.00293 11.32737 
1.44403 1.39033 1.42866 
0.02145 11.32219 2.88485 
1.39267 1.41305 4.23582 
11.32286 11.30005 5.66446 
1.37256 1.43187 7.05647 
0.03851 11.31850 8.49590 
1.41201 1.38369 9.91349 
11.31756 2.85127 11.32474 
1.44572 4.26813 1.43419 
11.32584 2.81790 2.85687 
1.38714 4.25708 4.20656 
11.33036 2.87705 5.62602 
1.38896 4.29994 7.09816 
0.00594 2.86722 8.51479 
1.39433 4.22159 9.91857 
0.01081 5.64834 11.32266 
1.44391 7.12450 1.38738 
11.33221 5.64032 2.87045 
1.37432 7.05723 4.26993 
0.01091 5.57909 5.65602 
1.37690 7.11896 7.09860 
0.01034 5.66010 8.52661 
1.43296 7.08508 9.93019 
11.32103 8.52461 0.03148 
1.44795 9.91935 1.43896 
0.00309 8.49530 2.82777 
1.44626 9.89253 4.23865 
11.31616 8.52224 5.64946 
1.42120 9.91052 7.04201 
11.32715 8.45334 8.53110 
1.42517 9.86901 9.93918 
2.81366 11.30665 11.32170 
4.27323 1.43526 1.41004 
2.81992 0.00234 2.83790 
4.26288 1.39477 4.25614 
2.78308 0.00281 5.66804 
4.27487 1.41373 7.11286 
2.82823 11.32073 8.50366 
4.23656 1.42325 9.93548 
2.81607 2.85280 0.03275 
4.25795 4.28318 1.39732 
2.79797 2.77768 2.83926 
4.21360 4.23710 4.28431 
2.79620 2.83556 5.64031 
4.27406 4.26607 7.07107 
2.83855 2.88648 8.46901 
4.23207 4.22167 9.94372 
2.85745 5.69771 11.28457 
4.26596 7.06479 1.41159 
2.80261 5.69541 2.84444 
4.25545 7.07082 4.29405 
2.78839 5.71998 5.65013 
4.20491 7.07849 7.06970 
2.82473 5.66339 8.47850 
4.27061 7.09875 9.93065 
2.84665 8.56256 0.02061 
4.27291 9.95390 1.40986 
2.81667 8.51010 2.83844 
4.18835 9.92081 4.22441 
2.85111 8.49889 5.62914 
4.27698 9.92584 7.11795 
2.83974 8.49421 8.48385 
4.24122 9.92622 9.90704 
5.62889 0.02834 0.00105 
7.08032 1.44636 1.42271 
5.68966 0.03236 2.82884 
7.14447 1.41393 4.25518 
5.67290 11.30743 5.69902 
7.07100 1.44704 7.09974 
5.64397 11.31714 8.49950 
7.05015 1.43491 9.88487 
5.65687 2.83984 0.00897 
7.11589 4.22067 1.39161 
5.67057 2.87331 2.83014 
7.08216 4.24431 4.28455 
5.69203 2.83898 5.62769 
7.06468 4.28973 7.05962 
5.67081 2.83445 8.45718 
7.06564 4.29054 9.87142 
5.66137 5.65779 0.02454 
7.07862 7.08484 1.39963 
5.64379 5.68429 2.87739 
7.07482 7.06288 4.23531 
5.63965 5.69321 5.69698 
7.10560 7.10711 7.08527 
5.69751 5.64574 8.51882 
7.06944 7.11543 9.89662 
5.69523 8.49730 11.32011 
7.11660 9.95474 1.43931 
5.66525 8.56902 2.80557 
7.04398 9.91327 4.28141 
5.64895 8.49545 5.67541 
7.06694 9.90936 7.06218 
5.67722 8.44517 8.48195 
7.08436 9.91152 9.95470 
8.47450 0.00897 0.04117 
9.90152 1.41593 1.36542 
8.51727 0.03743 2.83541 
9.90896 1.42102 4.24185 
8.48438 11.31404 5.64047 
9.92232 1.42478 7.07244 
8.49792 0.02350 8.53436 
9.94194 1.42014 9.90183 
8.44909 2.82951 0.01792 
9.91602 4.27882 1.38332 
8.51039 2.85931 2.81991 
9.93223 4.25072 4.29247 
8.53565 2.85777 5.66729 
9.91816 4.27489 7.06439 
8.49571 2.82610 8.52786 
9.91725 4.27251 9.91556 
8.51265 5.67419 11.31244 
9.89256 7.06992 1.36052 
8.49000 5.66393 2.83603 
9.94352 7.06521 4.23468 
8.45786 5.67227 5.66127 
9.94032 7.08245 7.10057 
8.50756 5.68615 8.48652 
9.95476 7.08546 9.89711 
8.45659 8.49301 0.00228 
9.87655 9.86917 1.38984 
8.50870 8.48087 2.86277 
9.92831 9.91241 4.23837 
8.48613 8.46484 5.67151 
9.93160 9.90790 7.06558 
8.49194 8.51928 8.49603 
9.88552 9.94997 9.94671 

0.210973 -0.175231 0.239211 
-0.522160 0.160701 -0.236663 
-0.371226 -0.007927 -0.735682 
0.066709 -0.086279 0.299391 
0.026522 0.363023 -0.087298 
0.335702 0.045116 0.211534 
-0.385646 -0.058650 -0.016247 
0.110777 0.413609 0.023431 
0.234934 -0.240695 0.232147 
-0.330989 -0.106557 -0.174629 
-0.084491 0.106836 -0.593141 
0.447846 -0.219385 0.350231 
0.058506 -0.579365 0.479497 
0.338246 -0.481509 -0.247937 
-0.139428 -0.361642 -0.274989 
0.382774 0.320497 0.083108 
0.111815 0.296460 0.185561 
-0.314646 -0.425931 0.248429 
-0.103601 0.356727 -0.752845 
0.209352 0.378305 -0.219113 
-0.236051 1.166988 0.246077 
0.230801 -0.279340 -0.255930 
-0.070230 0.114764 -0.210841 
-0.036785 0.075174 -0.019817 
0.134920 -0.226723 -0.322285 
-0.505115 0.107450 -0.140020 
-0.099801 -0.094922 -0.113075 
-0.444049 0.140462 0.137816 
0.147368 -0.380457 0.109671 
-0.060310 -0.134862 0.445993 
0.101470 0.716984 -0.198272 
-0.218756 0.374102 -0.258344 
0.192037 0.401224 0.144886 
-0.338500 -0.097418 0.174120 
0.285856 0.058479 -0.087163 
-0.083077 0.142486 0.060107 
0.543841 0.081152 0.067831 
-0.466123 0.100503 -0.463271 
-0.081851 0.172107 -0.133439 
-0.121556 0.086813 -0.243939 
0.032712 -0.250318 -0.306778 
-0.243755 -0.234413 0.472965 
0.482809 0.612204 -0.075827 
0.082053 0.167729 -0.346029 
0.230115 0.013035 0.328392 
-0.408183 -0.072762 -0.072353 
-0.141809 -0.572225 0.164596 
0.190460 0.298320 -0.348874 
-0.250498 -0.225518 0.450191 
-0.134090 0.432897 0.169487 
0.348679 -0.141921 -0.130636 
-0.134282 0.303162 -0.605960 
0.162625 -0.587637 0.258460 
0.344776 0.037421 0.257634 
0.111855 0.114450 0.271447 
-0.161312 -0.127767 -0.195328 
0.159369 -0.624958 -0.197676 
-0.119476 -0.154804 0.086685 
0.343429 -0.310838 -0.129225 
0.714206 0.129755 0.291318 
-0.294135 0.029635 0.434244 
-0.442047 -0.193778 -0.408580 
-0.061499 0.054513 0.139032 
0.211239 -0.201925 0.072114 
0.461292 -0.189503 -0.076908 
-0.068734 -0.174006 0.025063 
-0.142502 -0.125051 0.191514 
-0.588322 0.145648 -0.030765 
-0.189407 0.372483 -0.371389 
0.292749 -0.306190 -0.288255 
0.349810 0.121979 0.194385 
0.114646 -0.148472 0.423479 
0.090538 0.087000 -0.260093 
-0.429450 0.606797 0.318870 
-0.050279 -0.230270 0.155647 
-0.026845 0.186475 -0.424354 
-0.277280 -0.160848 0.359240 
0.290607 -0.360615 0.208786 
-0.132174 0.166895 0.430400 
0.181575 -0.404336 0.501085 
0.228097 0.110359 -0.364442 
-0.019713 -0.073132 0.305058 
0.205906 -0.257681 -0.361687 
-0.121492 0.314054 0.121593 
0.193634 -0.172475 -0.259646 
-0.260485 -0.270498 -0.037459 
-0.515007 0.369787 -0.212065 
0.238392 -0.433194 0.190167 
-0.338600 0.233386 0.249253 
-0.381885 -0.198940 -0.083144 
-0.049816 -0.635427 0.285659 
0.360652 0.018275 -0.368651 
0.003814 0.023934 -0.150897 
0.254271 0.081162 0.398501 
-0.155556 0.599994 0.170055 
-0.189271 0.264011 -0.391551 
0.053527 0.122095 -0.536417 
0.314480 0.069098 0.551202 
-0.030977 -0.415562 0.005841 
0.147549 -0.055072 0.111898 
0.223160 0.156103 0.414370 
-0.010303 -0.054243 0.079405 
-0.030697 -0.264323 -0.399223 
-0.294330 0.044339 0.172954 
0.493940 0.114052 -0.604603 
0.073800 -0.282382 0.352474 
0.106416 -0.070980 0.148767 
-0.450111 0.043086 -0.669386 
-0.343658 -0.224899 0.160378 
-0.162001 -0.193378 0.373799 
0.100089 0.320221 -0.373979 
-0.217104 -0.246529 -0.006709 
-0.289415 0.002046 -0.097464 
0.327625 0.016010 0.585844 
0.107062 -0.046631 -0.064233 
-0.297560 -0.009055 0.222893 
0.526638 0.105874 0.068402 
-0.177978 -0.093607 -0.337814 
0.020085 -0.055220 0.071402 
-0.470411 0.062910 0.311677 
0.375665 0.018293 -0.154441 
0.403578 0.554281 0.478875 
-0.155000 0.104340 -0.226174 
-0.268271 -0.070458 0.025510 
0.242730 0.281207 -0.171402 
-0.261744 0.092273 0.310258 
0.207121 0.005538 0.082749 
0.227395 -0.308428 -0.267505 

0.00019705 0.00020403125 0.00015638124999999998 -0.000178325 -1.4575e-05 0.00012274375 

2