111 1 Fe 26 -1050.14975933 4.328499613999838 4.328499613999838
1.00000000 
     11.3365200000       0.0000000000       0.0000000000
      0.0000000000      11.3365200000       0.0000000000
      0.0000000000       0.0000000000      11.3365200000
128
Cartesian 
0.03850 11.32026 0.00287 
1.35812 1.44271 1.34246 
0.01333 0.01990 2.90173 
1.49263 1.48835 4.25379 
11.29348 11.29699 5.68411 
1.42798 1.46768 7.05791 
0.09263 0.02888 8.49637 
1.42692 1.38557 9.87781 
11.33235 2.86048 0.00489 
1.40068 4.21818 1.33867 
0.05002 2.88027 2.86842 
1.33520 4.24289 4.32520 
0.00891 2.83438 5.62013 
1.34472 4.22419 7.08781 
11.29692 2.82213 8.53322 
1.45089 4.25017 9.94145 
11.30650 5.66181 11.33159 
1.37219 7.01672 1.44805 
11.32434 5.60256 2.81389 
1.37476 7.09616 4.34107 
11.31819 5.69160 5.65946 
1.35484 7.08591 7.10372 
0.03830 5.67522 8.53807 
1.37837 7.06316 9.92290 
11.32187 8.53990 11.28282 
1.44390 9.90743 1.38469 
11.31973 8.62336 2.81402 
1.48071 9.87690 4.19273 
0.04792 8.49048 5.63113 
1.40433 9.93603 7.07988 
11.27639 8.50016 8.49417 
1.46305 9.90081 9.91158 
2.82484 11.32136 0.00853 
4.25543 1.38048 1.44618 
2.86514 0.02794 2.78586 
4.20833 1.31989 4.29272 
2.87055 0.04888 5.64798 
4.28892 1.56431 7.07150 
2.82376 11.31703 8.49398 
4.27641 1.44116 9.88582 
2.82359 2.85607 11.31653 
4.31767 4.22398 1.46329 
2.82410 2.87465 2.77286 
4.22478 4.32615 4.22669 
2.83283 2.87182 5.66413 
4.24142 4.33523 7.09806 
2.82746 2.75565 8.54003 
4.29212 4.30396 9.85097 
2.90954 5.58329 0.02107 
4.26637 7.11191 1.43749 
2.82197 5.61241 2.89087 
4.19127 7.07716 4.22422 
2.75248 5.67722 5.69434 
4.27229 7.10887 7.02547 
2.86688 5.60833 8.48529 
4.23090 7.11801 9.86785 
2.90013 8.46586 11.23948 
4.18223 9.98953 1.44927 
2.81448 8.56909 2.82586 
4.30724 9.91435 4.31482 
2.76499 8.50907 5.67058 
4.27634 9.89754 7.10018 
2.86482 8.51417 8.56806 
4.24660 9.92540 9.90606 
5.70592 11.26699 0.05764 
7.07062 1.46088 1.49168 
5.67048 0.00043 2.74736 
7.06947 1.45491 4.25942 
5.65846 0.05151 5.64507 
7.17176 1.42289 7.04545 
5.65340 0.05743 8.54058 
7.06133 1.36959 9.93085 
5.66232 2.78591 11.28134 
7.02783 4.20041 1.47055 
5.69267 2.79098 2.85547 
7.05926 4.31419 4.27233 
5.58420 2.79290 5.66393 
7.03876 4.25298 7.08927 
5.64093 2.92271 8.46255 
7.05632 4.27125 9.86115 
5.61344 5.75259 0.01945 
7.04480 7.13441 1.40415 
5.69079 5.68174 2.92904 
7.06826 7.08684 4.23524 
5.72426 5.66382 5.66005 
7.11192 7.04670 7.01195 
5.73322 5.61600 8.48812 
7.03348 7.18411 9.96282 
5.67288 8.44612 0.00516 
7.12570 9.92899 1.39993 
5.59358 8.47014 2.87594 
7.09522 9.94645 4.28466 
5.66058 8.54079 5.69295 
7.00929 9.94175 7.15553 
5.67256 8.46432 8.45223 
7.13096 9.86941 9.90846 
8.48419 11.30771 11.29114 
9.89769 1.41856 1.41839 
8.53331 11.32050 2.85353 
9.94713 1.45748 4.26929 
8.48886 11.27430 5.70228 
9.86778 1.42183 7.10030 
8.51951 0.02500 8.44782 
9.87580 1.38109 9.96754 
8.56860 2.78283 0.03210 
9.97610 4.26923 1.45699 
8.49857 2.85396 2.79722 
9.91401 4.29393 4.18216 
8.49696 2.84860 5.64355 
9.92396 4.25626 6.97732 
8.53344 2.83961 8.46695 
9.82338 4.22097 9.95485 
8.46151 5.69452 0.02499 
10.04191 7.09374 1.38930 
8.47465 5.63580 2.82987 
9.88552 7.04547 4.30417 
8.55998 5.62449 5.64266 
9.92138 7.04830 7.14744 
8.55914 5.70933 8.57988 
9.92639 7.02922 9.93072 
8.46900 8.47730 11.31791 
9.87316 9.95110 1.46668 
8.48303 8.55027 2.86936 
9.86246 9.88672 4.22191 
8.50336 8.52052 5.63369 
9.94013 9.91626 7.07761 
8.59674 8.40987 8.50407 
9.86089 9.84399 9.91021 

-0.635183 -0.071462 -0.189665 
0.569215 -0.238746 0.711487 
0.093032 0.145122 -0.525580 
-0.600068 -0.722337 -0.185462 
0.510935 0.499508 -0.383419 
-0.132555 -0.474413 0.043795 
-1.114978 -0.348832 0.045007 
-0.122667 0.272624 0.608282 
-0.221385 -0.385670 -0.410184 
0.314473 0.427310 0.754967 
-0.439377 -0.602461 -0.452231 
0.919699 0.276802 -0.755501 
-0.436552 -0.139689 0.569632 
0.526193 0.145212 0.252075 
0.056666 0.153314 -0.145170 
-0.360647 -0.140774 -0.372615 
0.378874 -0.221340 -0.147546 
0.725131 0.605643 -0.291186 
0.355042 0.955651 0.447444 
0.218901 -0.179835 -1.384677 
-0.105820 -0.215959 0.287630 
0.633991 0.057103 0.270167 
-0.528725 -0.555458 -0.178303 
0.562138 -0.022862 0.052418 
0.237234 -0.270931 0.515508 
-0.295456 0.093291 -0.003001 
0.149849 -1.265856 0.161041 
-0.533039 0.985207 0.629331 
-0.924439 0.333040 0.441187 
0.281633 -0.167700 0.013595 
0.795038 0.092923 0.119542 
-0.518192 0.087262 -0.034124 
0.220050 0.352298 -0.392321 
-0.073646 0.669997 -0.639965 
-0.677660 -0.028396 0.574192 
0.494045 1.285059 -0.887045 
-0.468806 -0.616827 0.558601 
-0.550003 -1.497829 0.297233 
0.441953 0.286183 -0.258135 
-0.247239 -0.345243 0.514104 
0.553128 -0.416627 -0.028888 
-0.335459 0.171209 -0.422100 
0.137815 -0.336390 0.545096 
0.122105 -0.925042 0.562516 
0.073948 0.222366 0.036485 
-0.138194 -0.635718 -0.523384 
-0.002045 1.141563 -0.463113 
-0.302528 -0.570064 0.769383 
-0.504493 0.865949 -0.063447 
-0.616817 -0.335459 0.127109 
-0.398678 0.591281 -0.615240 
0.135919 0.204394 0.610205 
0.522335 0.014708 0.032306 
-0.385593 -0.330707 0.387944 
-0.558455 0.808609 0.056761 
0.389494 -0.734228 0.116435 
-0.767192 0.079589 1.223318 
0.835735 -1.102762 -0.519141 
0.098334 -0.971249 -0.065753 
-0.608905 0.186799 -0.602037 
0.774532 -0.013226 0.238536 
-0.380453 0.537093 -0.074539 
-0.503010 -0.297434 -1.189141 
0.551200 0.132352 0.164648 
-0.370471 0.528573 -0.703305 
0.376031 -0.632105 -0.949488 
0.170397 -0.198651 1.249022 
0.304458 -0.426621 -0.046961 
0.267654 -0.403753 0.563444 
-1.067046 0.194551 0.353956 
0.151974 -0.410110 -0.483085 
0.338466 0.552340 -0.189072 
0.094719 0.436470 0.467089 
0.414043 0.579240 -0.765763 
-0.693827 0.373474 0.349187 
0.281569 -1.005107 -0.072342 
0.825276 0.945820 -0.359274 
0.874297 -0.068696 -0.350824 
0.522474 -0.933757 0.250429 
0.465941 -0.250349 0.942158 
0.564030 -0.910015 -0.108013 
0.440150 -0.432579 0.641787 
-0.384107 0.068128 -1.053415 
0.295166 0.290974 0.277199 
-0.804265 0.265835 0.069269 
0.176058 0.321491 0.633083 
-0.446343 1.284855 -0.049719 
0.497299 -1.292438 -0.701361 
-0.492581 1.204627 0.122285 
-0.437218 -0.353956 0.337693 
0.675438 0.658896 -0.318725 
-0.445053 -0.097185 -0.341650 
0.207268 -0.462400 -0.329693 
0.808197 -0.201741 -0.499612 
0.042584 0.261738 0.406782 
-0.538039 0.360206 -0.279904 
0.107550 0.152893 0.564282 
0.515125 -0.212515 0.249082 
-0.477955 0.621931 0.074323 
-0.328528 -0.406258 -0.155664 
0.124063 0.587320 -0.432259 
0.910540 -0.038522 -0.375801 
-0.129589 -0.521470 0.695778 
0.646549 0.041205 -0.533163 
-1.137740 0.557322 -0.156343 
-0.802001 -0.277653 -0.609726 
0.143532 -0.049588 0.654143 
-0.112142 -0.641297 0.581606 
-0.039880 0.104417 -0.177419 
0.044828 -0.129384 1.158591 
-0.498414 0.119795 0.352672 
0.899956 0.234589 -0.189347 
-0.007686 -0.332781 0.175282 
-1.366053 0.182696 0.497948 
0.138850 0.680116 -0.295344 
0.334471 0.577397 -0.885733 
-0.742812 0.450288 0.283496 
0.172540 0.140039 -0.898746 
-0.788373 -0.630648 -0.784713 
0.038172 0.408576 0.339013 
0.597036 0.082705 0.546213 
0.511659 -0.170428 -0.766921 
0.014796 -0.860783 -0.504414 
0.745913 0.444972 0.598442 
-0.146518 -0.338925 0.659863 
-0.149087 -0.170349 0.092477 
-1.210365 0.756465 -0.291950 
0.686567 0.892036 -0.061879 

0.00574794375 0.00538679375 0.0052727500000000005 -0.00012403124999999998 -0.00015910000000000002 -0.00010076875 

2