111 1 Fe 26 -1054.35647651 0.12178243399989697 0.12178243399989697
1.00000000 
     11.3365200000       0.0000000000       0.0000000000
      0.0000000000      11.3365200000       0.0000000000
      0.0000000000       0.0000000000      11.3365200000
128
Cartesian 
0.00613 11.33629 11.33490 
1.41526 1.41695 1.40979 
11.33590 0.00330 2.83881 
1.42253 1.42271 4.24931 
11.33380 0.00066 5.67225 
1.42105 1.41919 7.08042 
0.00672 0.00481 8.50431 
1.41563 1.41755 9.91788 
0.00239 2.83783 0.00063 
1.41996 4.25078 1.40882 
0.00688 2.83649 2.83567 
1.40602 4.25105 4.25154 
0.00057 2.83239 5.66788 
1.41414 4.25313 7.08527 
11.33272 2.83448 8.50347 
1.41300 4.24881 9.91920 
11.33484 5.67060 11.33429 
1.41050 7.08007 1.41648 
0.00376 5.66111 2.83047 
1.41624 7.08860 4.25792 
0.00429 5.67010 5.66950 
1.41448 7.08565 7.08592 
0.00516 5.66912 8.50376 
1.41832 7.08392 9.91805 
0.00300 8.50740 0.00060 
1.42011 9.92032 1.41662 
11.33561 8.50724 2.83454 
1.42211 9.91830 4.25206 
0.00228 8.50477 5.66329 
1.41596 9.91526 7.08786 
11.33168 8.50410 8.50078 
1.42216 9.91584 9.92034 
2.83564 11.33517 0.00044 
4.24845 1.41447 1.41534 
2.83395 0.00733 2.83305 
4.25075 1.41153 4.25561 
2.83440 11.33612 5.67058 
4.25011 1.42535 7.08830 
2.83780 0.00266 8.50004 
4.25492 1.42105 9.92048 
2.82907 2.83726 0.00221 
4.25308 4.24778 1.41989 
2.83226 2.83588 2.83332 
4.25144 4.25590 4.25711 
2.83385 2.83604 5.66612 
4.25403 4.25286 7.08096 
2.83584 2.82658 8.50373 
4.25473 4.25188 9.91527 
2.83970 5.66211 11.33515 
4.25427 7.08782 1.41318 
2.83519 5.66489 2.83669 
4.25324 7.08147 4.24794 
2.82769 5.66598 5.67188 
4.25504 7.08758 7.08429 
2.83364 5.66861 8.50121 
4.25150 7.08816 9.91568 
2.84010 8.50024 11.32883 
4.24915 9.92191 1.41575 
2.83168 8.50778 2.82693 
4.25405 9.92043 4.25637 
2.83110 8.50049 5.66637 
4.25495 9.92253 7.08602 
2.83879 8.50547 8.50873 
4.24892 9.92097 9.91601 
5.67516 11.33405 0.00145 
7.08421 1.42098 1.41638 
5.66980 11.33372 2.83206 
7.08496 1.41867 4.24867 
5.67457 0.00419 5.67017 
7.09086 1.41391 7.08253 
5.66233 0.00449 8.50402 
7.08557 1.41418 9.92078 
5.66831 2.83374 11.33047 
7.08375 4.24981 1.42172 
5.67052 2.82551 2.82950 
7.08249 4.25320 4.24992 
5.66749 2.83031 5.66696 
7.08137 4.24910 7.08395 
5.66680 2.84065 8.50005 
7.08343 4.25623 9.91667 
5.66952 5.67449 0.00247 
7.07895 7.08845 1.41884 
5.66897 5.66734 2.83985 
7.08678 7.08099 4.24858 
5.67286 5.67014 5.66899 
7.08597 7.07970 7.07920 
5.66792 5.66231 8.50224 
7.08109 7.09212 9.92181 
5.67053 8.49968 11.33629 
7.08735 9.91892 1.41786 
5.66981 8.49966 2.83832 
7.08329 9.92570 4.25434 
5.66675 8.50287 5.67214 
7.08132 9.92044 7.09244 
5.66908 8.50080 8.50498 
7.08022 9.91506 9.91961 
8.50050 11.33319 11.33278 
9.92079 1.41499 1.42022 
8.50514 11.33213 2.83414 
9.92704 1.41492 4.25375 
8.50297 11.33431 5.67313 
9.91825 1.41675 7.08926 
8.50464 0.00357 8.49936 
9.91577 1.41561 9.92064 
8.50358 2.82942 0.00109 
9.92029 4.25003 1.42068 
8.50065 2.83304 2.82960 
9.92050 4.25814 4.24734 
8.50061 2.83843 5.66569 
9.92195 4.24792 7.07802 
8.50873 2.83610 8.50431 
9.91181 4.24930 9.91848 
8.50100 5.66653 0.00218 
9.92489 7.08365 1.41739 
8.49954 5.66451 2.83668 
9.91691 7.08271 4.24824 
8.50760 5.66268 5.66480 
9.92101 7.08372 7.09121 
8.50750 5.66803 8.51166 
9.91681 7.08582 9.92094 
8.50136 8.49271 11.33444 
9.91479 9.92137 1.41955 
8.50152 8.50584 2.83752 
9.91419 9.91402 4.25082 
8.50625 8.50374 5.66686 
9.92167 9.92094 7.08952 
8.50615 8.49562 8.50253 
9.92105 9.91463 9.92192 

-0.072671 -0.009878 0.011113 
0.015352 0.005080 0.071816 
0.033667 -0.042185 -0.034025 
-0.045694 -0.063570 0.031517 
0.052426 -0.016984 -0.038774 
-0.038964 -0.013337 0.046063 
-0.047741 -0.050876 -0.002474 
0.030319 -0.002970 0.014586 
-0.068603 -0.042320 -0.020531 
-0.018427 0.017619 0.074769 
-0.071900 -0.030289 -0.035553 
0.131033 0.005760 -0.000894 
-0.018550 0.014514 -0.001293 
0.035801 -0.050919 0.022665 
0.035117 -0.002814 -0.016787 
0.047937 0.020571 -0.024337 
-0.000573 -0.037367 -0.004130 
0.100501 0.051414 -0.009081 
-0.027794 0.092714 0.031203 
0.012816 -0.036030 -0.113045 
-0.068952 0.006580 -0.007599 
0.038912 0.028781 0.021502 
-0.073271 -0.021039 0.000345 
-0.005951 0.012952 0.016555 
-0.021305 -0.051388 0.003680 
-0.026611 0.007227 -0.000490 
0.013513 -0.046146 -0.007480 
-0.045331 0.053709 -0.012454 
-0.052245 -0.022091 0.060628 
0.029303 0.045518 -0.010325 
0.068690 -0.017879 0.037347 
-0.035117 0.047214 -0.024899 
-0.000451 0.024245 -0.039148 
0.037451 0.030153 -0.004114 
0.003829 -0.069658 0.016806 
0.015827 0.061142 -0.053160 
0.003210 0.001224 -0.004477 
0.029209 -0.069189 -0.046853 
-0.038551 -0.011566 0.021806 
-0.037532 -0.033456 0.017122 
0.077841 -0.034648 -0.056794 
0.009863 0.026069 -0.024539 
0.034390 -0.002177 0.015802 
-0.002243 -0.074831 -0.060242 
-0.001027 0.015703 0.012012 
-0.052285 -0.010908 0.031962 
-0.030893 0.117493 -0.016597 
-0.049127 -0.003943 0.043910 
-0.035481 0.063923 -0.004332 
-0.048614 -0.033365 0.056920 
-0.024258 0.041420 -0.027408 
-0.050240 0.051281 0.040050 
0.061460 0.038450 -0.028159 
-0.051054 -0.026040 0.009037 
0.014615 -0.013545 0.000111 
0.013395 -0.059034 0.022307 
-0.059452 -0.001575 0.088673 
0.046622 -0.030975 0.008988 
0.035747 -0.075661 0.064822 
-0.026529 -0.004020 -0.050906 
0.061418 0.015034 0.036579 
-0.035599 -0.022285 -0.004930 
-0.045218 -0.039711 -0.105652 
0.059585 0.014598 0.050028 
-0.077151 0.015636 -0.017055 
0.028874 -0.073959 -0.015377 
-0.022902 0.023764 0.018072 
0.042799 -0.024960 0.015397 
-0.063725 -0.023442 0.010970 
-0.045458 0.070003 0.051568 
0.069774 -0.015369 -0.007406 
0.001439 0.043602 -0.043255 
0.005405 0.019011 0.057083 
-0.001015 0.010703 -0.067545 
-0.066248 0.074552 0.067705 
0.016975 -0.058814 0.006883 
0.014032 0.033630 -0.006167 
0.081272 0.019891 0.014303 
0.051845 -0.075096 0.009817 
0.025420 -0.053257 0.048198 
-0.017286 -0.075691 -0.018506 
0.085400 -0.042212 0.017140 
-0.027393 -0.006936 -0.067400 
0.007019 0.062525 0.052825 
-0.045634 -0.017268 -0.008966 
0.037949 0.037697 0.075471 
0.016775 0.091423 -0.013287 
0.041296 -0.103438 -0.040804 
-0.045983 0.063238 0.013526 
-0.012014 -0.020253 -0.006845 
-0.031223 0.052201 -0.026751 
0.021267 -0.069740 0.001167 
0.039116 -0.007312 -0.041245 
0.057036 -0.029037 -0.037747 
-0.002662 0.011575 -0.047476 
0.070017 0.036908 -0.024835 
0.022700 0.004459 0.038283 
0.009200 0.008496 -0.034466 
-0.034634 0.069515 0.014882 
-0.088434 0.037062 -0.015980 
0.008035 0.021062 -0.047688 
0.030075 0.019225 -0.045424 
-0.028663 -0.071674 0.066251 
0.062227 -0.002200 0.014354 
-0.027232 0.052031 -0.002164 
-0.008602 -0.002865 -0.049434 
0.044077 -0.003448 0.071739 
0.000461 -0.102933 0.022233 
0.029724 -0.051994 -0.010725 
-0.012215 0.043968 0.078808 
-0.098089 -0.015948 -0.033424 
0.093268 0.020858 0.038055 
-0.010201 0.014475 0.018039 
-0.065959 0.012907 0.020181 
0.025594 0.047470 -0.058187 
0.051598 0.014977 0.013548 
-0.042166 0.053668 0.049474 
-0.000288 -0.006014 -0.081249 
-0.068478 -0.004767 -0.117229 
0.054886 -0.020373 0.010106 
0.011724 0.094012 0.052123 
0.058330 -0.023837 -0.042819 
-0.011890 -0.063363 -0.042967 
0.069671 0.074685 0.029288 
-0.057135 -0.029756 0.042916 
-0.014645 -0.019004 -0.024604 
-0.064467 0.065718 -0.011000 
-0.014995 0.058280 -0.021594 

-0.00198584375 -0.00198688125 -0.00198951875 9.75e-07 2.2500000000000002e-07 -6.375e-07 

2